
#######################################################################
#
#                 Cambridge Crystallographic Data Centre
#                                CCDC
#
#######################################################################
#
# If this CIF has been generated from an entry in the Cambridge
# Structural Database, then it will include bibliographic, chemical,
# crystal, experimental, refinement or atomic coordinate data resulting
# from the CCDC's data processing and validation procedures.
#
#######################################################################

data_CSD_CIF_VOJZIF
_audit_creation_date 2014-08-21
_audit_creation_method CSD-ConQuest-V1
_database_code_CSD VOJZIF
_database_code_depnum_ccdc_archive 'CCDC 1020300'
_chemical_formula_sum 'C36 H24'
_chemical_formula_moiety
;
C36 H24
;
_journal_coden_Cambridge 1078
_journal_year 2014
_journal_name_full 'CSD Communication(Private Communication) '
loop_
_publ_author_name
"R.G.Y.Wooi"
"J.M.White"
_chemical_name_systematic
;
1,2,4-triphenyltriphenylene
;
_cell_volume   4768.571
_exptl_crystal_colour 'yellow'
_exptl_crystal_density_diffrn 1.272
_exptl_special_details
;
contribution from School of Chemistry, The University of Melbourne, Victoria, 
3010, Australia
;
_exptl_crystal_description 'block'
_exptl_crystal_preparation 'pentane'
_diffrn_ambient_temperature 130
#These two values have been output from a single CSD field.
_refine_ls_R_factor_gt 0.0398
_refine_ls_wR_factor_gt 0.0398
_symmetry_cell_setting monoclinic
_symmetry_space_group_name_H-M 'P 21/c'
_symmetry_Int_Tables_number 14
loop_
_symmetry_equiv_pos_site_id
_symmetry_equiv_pos_as_xyz
1 x,y,z
2 -x,1/2+y,1/2-z
3 -x,-y,-z
4 x,-1/2-y,-1/2+z
_cell_length_a 11.8770(6)
_cell_length_b 20.2342(10)
_cell_length_c 20.0123(10)
_cell_angle_alpha 90
_cell_angle_beta 97.470(1)
_cell_angle_gamma 90
_cell_formula_units_Z 8
loop_
_atom_type_symbol
_atom_type_radius_bond
C 0.68
H 0.23
loop_
_atom_site_label
_atom_site_type_symbol
_atom_site_fract_x
_atom_site_fract_y
_atom_site_fract_z
C1 C 0.04008(11) 0.47101(7) 0.25562(7)
H1 H 0.05300 0.51650 0.26530
C2 C 0.08527(11) 0.44378(7) 0.20169(7)
C3 C 0.07336(11) 0.37425(7) 0.18991(7)
C4 C 0.02881(11) 0.33549(7) 0.23920(7)
C5 C -0.03144(11) 0.36590(7) 0.28794(7)
C6 C -0.02377(11) 0.43449(7) 0.29651(7)
C7 C 0.09352(11) 0.34195(7) 0.12645(7)
C8 C 0.09681(11) 0.37734(7) 0.06612(7)
H2 H 0.09210 0.42420 0.06690
C9 C 0.10649(12) 0.34639(8) 0.00654(8)
H3 H 0.11000 0.37180 -0.03300
C10 C 0.11120(12) 0.27792(8) 0.00354(8)
H4 H 0.11840 0.25640 -0.03790
C11 C 0.10547(12) 0.24177(7) 0.06070(8)
H5 H 0.10760 0.19490 0.05830
C12 C 0.09649(11) 0.27212(7) 0.12289(7)
C13 C 0.09149(11) 0.23367(7) 0.18408(7)
C14 C 0.12896(11) 0.16740(7) 0.18903(8)
H6 H 0.15130 0.14620 0.15050
C15 C 0.13375(12) 0.13316(7) 0.24822(8)
H7 H 0.15850 0.08850 0.25050
C16 C 0.10236(11) 0.16385(7) 0.30464(8)
H8 H 0.10820 0.14060 0.34620
C17 C 0.06290(11) 0.22759(7) 0.30105(8)
H9 H 0.04010 0.24760 0.34010
C18 C 0.05540(11) 0.26413(7) 0.24054(7)
C19 C 0.14992(11) 0.48893(7) 0.16203(7)
C20 C 0.10173(13) 0.54756(7) 0.13622(8)
H10 H 0.02630 0.55840 0.14330
C21 C 0.16201(14) 0.59056(8) 0.10035(9)
H11 H 0.12780 0.63040 0.08270
C22 C 0.27167(14) 0.57539(8) 0.09034(8)
H12 H 0.31320 0.60450 0.06550
C23 C 0.32051(13) 0.51787(8) 0.11645(8)
H13 H 0.39620 0.50750 0.10960
C24 C 0.26121(11) 0.47507(7) 0.15244(7)
H14 H 0.29670 0.43580 0.17080
C25 C -0.11239(12) 0.32727(6) 0.32411(8)
C26 C -0.20222(12) 0.29501(6) 0.28551(8)
H15 H -0.20710 0.29560 0.23780
C27 C -0.28436(13) 0.26222(7) 0.31590(9)
H16 H -0.34540 0.24080 0.28900
C28 C -0.27767(14) 0.26067(8) 0.38535(10)
H17 H -0.33410 0.23830 0.40630
C29 C -0.18810(15) 0.29196(7) 0.42416(9)
H18 H -0.18260 0.29060 0.47190
C30 C -0.10698(13) 0.32512(7) 0.39374(8)
H19 H -0.04650 0.34680 0.42090
C31 C -0.07779(11) 0.47176(6) 0.34832(7)
C32 C -0.19463(12) 0.47066(7) 0.35030(8)
H20 H -0.24220 0.44460 0.31880
C33 C -0.24164(13) 0.50752(7) 0.39819(8)
H21 H -0.32140 0.50680 0.39900
C34 C -0.17416(14) 0.54481(7) 0.44417(8)
H22 H -0.20680 0.56900 0.47750
C35 C -0.05816(14) 0.54729(7) 0.44218(8)
H23 H -0.01120 0.57370 0.47360
C36 C -0.01074(13) 0.51097(7) 0.39401(8)
H24 H 0.06880 0.51310 0.39240
C37 C 0.46008(11) 0.56813(7) 0.74047(7)
H25 H 0.44590 0.61410 0.73500
C38 C 0.41388(11) 0.53514(7) 0.79119(7)
C39 C 0.42662(11) 0.46500(7) 0.79546(7)
C40 C 0.47366(11) 0.43237(7) 0.74307(7)
C41 C 0.53678(11) 0.46824(7) 0.69945(7)
C42 C 0.52633(11) 0.53713(7) 0.69710(7)
C43 C 0.40581(11) 0.42512(7) 0.85454(8)
C44 C 0.40207(11) 0.45268(7) 0.91869(8)
H26 H 0.40480 0.49940 0.92360
C45 C 0.39466(12) 0.41436(8) 0.97456(8)
H27 H 0.39130 0.43460 1.01710
C46 C 0.39202(13) 0.34609(8) 0.96888(9)
H28 H 0.38600 0.31930 1.00730
C47 C 0.39815(12) 0.31778(8) 0.90774(9)
H29 H 0.39770 0.27090 0.90430
C48 C 0.40504(11) 0.35539(7) 0.84971(8)
C49 C 0.41182(11) 0.32399(7) 0.78503(8)
C50 C 0.37773(12) 0.25761(7) 0.77230(9)
H30 H 0.35510 0.23160 0.80780
C51 C 0.37688(12) 0.23049(7) 0.71000(9)
H31 H 0.35450 0.18570 0.70250
C52 C 0.40862(12) 0.26805(7) 0.65728(9)
H32 H 0.40590 0.24930 0.61360
C53 C 0.44389(11) 0.33222(7) 0.66842(8)
H33 H 0.46590 0.35740 0.63220
C54 C 0.44799(11) 0.36134(7) 0.73263(8)
C55 C 0.34800(11) 0.57512(7) 0.83501(7)
C56 C 0.24030(12) 0.55562(7) 0.84794(8)
H34 H 0.20760 0.51620 0.82810
C57 C 0.18082(13) 0.59287(8) 0.88912(8)
H35 H 0.10880 0.57800 0.89890
C58 C 0.22480(14) 0.65153(8) 0.91634(8)
H36 H 0.18280 0.67740 0.94410
C59 C 0.32976(14) 0.67230(8) 0.90309(8)
H37 H 0.36030 0.71280 0.92130
C60 C 0.39125(13) 0.63386(7) 0.86285(8)
H38 H 0.46420 0.64830 0.85440
C61 C 0.62339(11) 0.43337(6) 0.66410(8)
C62 C 0.62916(12) 0.43719(7) 0.59527(8)
H39 H 0.57490 0.46290 0.56740
C63 C 0.71317(12) 0.40396(7) 0.56678(8)
H40 H 0.71580 0.40660 0.51960
C64 C 0.79331(12) 0.36685(7) 0.60713(9)
H41 H 0.85060 0.34390 0.58750
C65 C 0.79012(12) 0.36324(7) 0.67565(8)
H42 H 0.84560 0.33820 0.70330
C66 C 0.70578(11) 0.39618(6) 0.70403(8)
H43 H 0.70380 0.39350 0.75130
C67 C 0.57871(11) 0.57861(6) 0.64736(7)
C68 C 0.69553(12) 0.58626(7) 0.65017(8)
H44 H 0.74490 0.56550 0.68510
C69 C 0.74036(13) 0.62396(7) 0.60226(8)
H45 H 0.82020 0.62960 0.60500
C70 C 0.66959(13) 0.65354(7) 0.55042(8)
H46 H 0.70080 0.67850 0.51700
C71 C 0.55376(13) 0.64666(7) 0.54752(8)
H47 H 0.50480 0.66680 0.51200
C72 C 0.50856(12) 0.61042(6) 0.59627(8)
H48 H 0.42850 0.60720 0.59480
loop_
_geom_bond_atom_site_label_1
_geom_bond_atom_site_label_2
_geom_bond_distance
_geom_bond_site_symmetry_1
_geom_bond_site_symmetry_2
C1 H1 0.949 1_555 1_555
C2 C1 1.381 1_555 1_555
C3 C2 1.430 1_555 1_555
C4 C3 1.416 1_555 1_555
C5 C4 1.423 1_555 1_555
C6 C1 1.397 1_555 1_555
C7 C3 1.475 1_555 1_555
C8 C7 1.409 1_555 1_555
H2 C8 0.950 1_555 1_555
C9 C8 1.365 1_555 1_555
H3 C9 0.949 1_555 1_555
C10 C9 1.388 1_555 1_555
H4 C10 0.950 1_555 1_555
C11 C10 1.367 1_555 1_555
H5 C11 0.950 1_555 1_555
C12 C7 1.415 1_555 1_555
C13 C12 1.459 1_555 1_555
C14 C13 1.412 1_555 1_555
H6 C14 0.950 1_555 1_555
C15 C14 1.367 1_555 1_555
H7 C15 0.950 1_555 1_555
C16 C15 1.382 1_555 1_555
H8 C16 0.950 1_555 1_555
C17 C16 1.371 1_555 1_555
H9 C17 0.950 1_555 1_555
C18 C4 1.478 1_555 1_555
C19 C2 1.487 1_555 1_555
C20 C19 1.387 1_555 1_555
H10 C20 0.951 1_555 1_555
C21 C20 1.385 1_555 1_555
H11 C21 0.950 1_555 1_555
C22 C21 1.378 1_555 1_555
H12 C22 0.949 1_555 1_555
C23 C22 1.373 1_555 1_555
H13 C23 0.950 1_555 1_555
C24 C19 1.389 1_555 1_555
H14 C24 0.951 1_555 1_555
C25 C5 1.497 1_555 1_555
C26 C25 1.395 1_555 1_555
H15 C26 0.949 1_555 1_555
C27 C26 1.384 1_555 1_555
H16 C27 0.950 1_555 1_555
C28 C27 1.382 1_555 1_555
H17 C28 0.950 1_555 1_555
C29 C28 1.386 1_555 1_555
H18 C29 0.950 1_555 1_555
C30 C25 1.387 1_555 1_555
H19 C30 0.950 1_555 1_555
C31 C6 1.493 1_555 1_555
C32 C31 1.394 1_555 1_555
H20 C32 0.950 1_555 1_555
C33 C32 1.388 1_555 1_555
H21 C33 0.950 1_555 1_555
C34 C33 1.366 1_555 1_555
H22 C34 0.950 1_555 1_555
C35 C34 1.384 1_555 1_555
H23 C35 0.949 1_555 1_555
C36 C31 1.382 1_555 1_555
H24 C36 0.950 1_555 1_555
C37 H25 0.949 1_555 1_555
C38 C37 1.386 1_555 1_555
C39 C38 1.429 1_555 1_555
C40 C39 1.414 1_555 1_555
C41 C40 1.422 1_555 1_555
C42 C37 1.394 1_555 1_555
C43 C39 1.479 1_555 1_555
C44 C43 1.406 1_555 1_555
H26 C44 0.951 1_555 1_555
C45 C44 1.373 1_555 1_555
H27 C45 0.950 1_555 1_555
C46 C45 1.386 1_555 1_555
H28 C46 0.951 1_555 1_555
C47 C46 1.361 1_555 1_555
H29 C47 0.951 1_555 1_555
C48 C43 1.414 1_555 1_555
C49 C48 1.454 1_555 1_555
C50 C49 1.416 1_555 1_555
H30 C50 0.951 1_555 1_555
C51 C50 1.361 1_555 1_555
H31 C51 0.951 1_555 1_555
C52 C51 1.391 1_555 1_555
H32 C52 0.950 1_555 1_555
C53 C52 1.374 1_555 1_555
H33 C53 0.950 1_555 1_555
C54 C40 1.478 1_555 1_555
C55 C38 1.488 1_555 1_555
C56 C55 1.395 1_555 1_555
H34 C56 0.951 1_555 1_555
C57 C56 1.378 1_555 1_555
H35 C57 0.951 1_555 1_555
C58 C57 1.380 1_555 1_555
H36 C58 0.951 1_555 1_555
C59 C58 1.374 1_555 1_555
H37 C59 0.950 1_555 1_555
C60 C55 1.383 1_555 1_555
H38 C60 0.950 1_555 1_555
C61 C41 1.499 1_555 1_555
C62 C61 1.390 1_555 1_555
H39 C62 0.951 1_555 1_555
C63 C62 1.386 1_555 1_555
H40 C63 0.950 1_555 1_555
C64 C63 1.386 1_555 1_555
H41 C64 0.950 1_555 1_555
C65 C64 1.379 1_555 1_555
H42 C65 0.950 1_555 1_555
C66 C61 1.400 1_555 1_555
H43 C66 0.951 1_555 1_555
C67 C42 1.498 1_555 1_555
C68 C67 1.390 1_555 1_555
H44 C68 0.950 1_555 1_555
C69 C68 1.385 1_555 1_555
H45 C69 0.950 1_555 1_555
C70 C69 1.384 1_555 1_555
H46 C70 0.951 1_555 1_555
C71 C70 1.376 1_555 1_555
H47 C71 0.950 1_555 1_555
C72 C67 1.390 1_555 1_555
H48 C72 0.950 1_555 1_555
C5 C6 1.400 1_555 1_555
C11 C12 1.404 1_555 1_555
C13 C18 1.402 1_555 1_555
C17 C18 1.412 1_555 1_555
C23 C24 1.377 1_555 1_555
C29 C30 1.379 1_555 1_555
C35 C36 1.388 1_555 1_555
C41 C42 1.400 1_555 1_555
C47 C48 1.400 1_555 1_555
C49 C54 1.404 1_555 1_555
C53 C54 1.409 1_555 1_555
C59 C60 1.393 1_555 1_555
C65 C66 1.385 1_555 1_555
C71 C72 1.383 1_555 1_555
#END
