
#######################################################################
#
#                 Cambridge Crystallographic Data Centre
#                                CCDC
#
#######################################################################
#
# If this CIF has been generated from an entry in the Cambridge
# Structural Database, then it will include bibliographic, chemical,
# crystal, experimental, refinement or atomic coordinate data resulting
# from the CCDC's data processing and validation procedures.
#
#######################################################################

data_CSD_CIF_VOTBAJ
_audit_creation_date 2015-02-10
_audit_creation_method CSD-ConQuest-V1
_database_code_CSD VOTBAJ
_database_code_depnum_ccdc_archive 'CCDC 1035028'
_chemical_formula_sum 'C38 H22'
_chemical_formula_moiety
;
C38 H22
;
_journal_coden_Cambridge 24
_journal_volume 56
_journal_year 2015
_journal_page_first 3155
_journal_name_full 'Tetrahedron Lett. '
loop_
_publ_author_name
"G.Nagarjuna"
"Yi Ren"
"J.S.Moore"
_chemical_name_systematic
;
9,9'-(1,2-Phenylenediethyne-2,1-diyl)dianthracene
;
_cell_volume   2492.740
_exptl_crystal_colour 'orange'
_exptl_crystal_density_diffrn 1.275
_exptl_special_details
;
The data crystal was mounted using oil (Parantone-N, Exxon) to a  0.3 mm 
cryo-loop (Hampton Research) with the (-2 -1 0) scattering  planes roughly 
normal to the spindle axis.
;
_exptl_crystal_description 'prism'
_diffrn_ambient_temperature 183
#These two values have been output from a single CSD field.
_refine_ls_R_factor_gt 0.0318
_refine_ls_wR_factor_gt 0.0318
_symmetry_cell_setting orthorhombic
_symmetry_space_group_name_H-M 'P 21 21 21'
_symmetry_Int_Tables_number 19
loop_
_symmetry_equiv_pos_site_id
_symmetry_equiv_pos_as_xyz
1 x,y,z
2 1/2-x,-y,1/2+z
3 -x,1/2+y,1/2-z
4 1/2+x,1/2-y,-z
_cell_length_a 9.0524(3)
_cell_length_b 15.7822(5)
_cell_length_c 17.4480(6)
_cell_angle_alpha 90
_cell_angle_beta 90
_cell_angle_gamma 90
_cell_formula_units_Z 4
loop_
_atom_type_symbol
_atom_type_radius_bond
C 0.68
H 0.23
loop_
_atom_site_label
_atom_site_type_symbol
_atom_site_fract_x
_atom_site_fract_y
_atom_site_fract_z
C1 C 0.6768(2) 0.22253(12) 0.40466(12)
C2 C 0.7766(2) 0.28556(12) 0.37932(11)
C3 C 0.7732(2) 0.36542(13) 0.41330(13)
H1 H 0.83810 0.40840 0.39550
C4 C 0.6765(3) 0.38288(13) 0.47263(13)
H2 H 0.67670 0.43740 0.49580
C5 C 0.5796(3) 0.32136(14) 0.49838(13)
H3 H 0.51360 0.33350 0.53930
C6 C 0.5788(2) 0.24226(13) 0.46459(12)
H4 H 0.51110 0.20050 0.48210
C7 C 0.6709(2) 0.14142(13) 0.36888(11)
C8 C 0.6596(2) 0.07393(13) 0.33744(12)
C9 C 0.6434(2) -0.00471(12) 0.29765(12)
C10 C 0.5461(2) -0.06791(13) 0.32646(12)
C11 C 0.4671(2) -0.05802(14) 0.39604(12)
H5 H 0.47960 -0.00760 0.42500
C12 C 0.3743(2) -0.11862(15) 0.42206(14)
H6 H 0.32340 -0.11060 0.46910
C13 C 0.3526(3) -0.19423(14) 0.37950(15)
H7 H 0.28630 -0.23620 0.39790
C14 C 0.4256(2) -0.20674(14) 0.31304(14)
H8 H 0.41050 -0.25780 0.28520
C15 C 0.5253(2) -0.14437(13) 0.28384(12)
C16 C 0.6013(2) -0.15587(13) 0.21530(13)
H9 H 0.58720 -0.20690 0.18740
C17 C 0.6973(2) -0.09476(12) 0.18634(12)
C18 C 0.7720(2) -0.10610(15) 0.11563(13)
H10 H 0.75820 -0.15710 0.08760
C19 C 0.8625(3) -0.04556(16) 0.08738(13)
H11 H 0.91040 -0.05410 0.03950
C20 C 0.8865(3) 0.03030(16) 0.12851(13)
H12 H 0.95160 0.07200 0.10850
C21 C 0.8173(2) 0.04408(14) 0.19657(13)
H13 H 0.83420 0.09540 0.22360
C22 C 0.7198(2) -0.01746(12) 0.22769(12)
C23 C 0.8802(2) 0.26989(12) 0.31868(12)
C24 C 0.9699(2) 0.26355(12) 0.26814(12)
C25 C 1.0708(2) 0.25818(12) 0.20510(11)
C26 C 1.1647(2) 0.18720(11) 0.19764(12)
C27 C 1.1698(2) 0.12144(13) 0.25307(13)
H14 H 1.10760 0.12440 0.29690
C28 C 1.2626(2) 0.05392(13) 0.24441(14)
H15 H 1.26490 0.01080 0.28240
C29 C 1.3551(2) 0.04748(13) 0.17967(14)
H16 H 1.41750 -0.00040 0.17380
C30 C 1.3553(2) 0.10922(12) 0.12588(13)
H17 H 1.41900 0.10440 0.08280
C31 C 1.2612(2) 0.18152(12) 0.13278(12)
C32 C 1.2627(2) 0.24699(12) 0.07920(11)
H18 H 1.32610 0.24270 0.03600
C33 C 1.1737(2) 0.31845(12) 0.08710(11)
C34 C 1.1793(2) 0.38689(13) 0.03371(12)
H19 H 1.24230 0.38310 -0.00970
C35 C 1.0959(2) 0.45712(13) 0.04408(12)
H20 H 1.10170 0.50230 0.00820
C36 C 1.0010(2) 0.46363(12) 0.10747(13)
H21 H 0.94330 0.51340 0.11410
C37 C 0.9905(2) 0.39986(12) 0.15945(12)
H22 H 0.92480 0.40530 0.20170
C38 C 1.0763(2) 0.32521(12) 0.15146(11)
loop_
_geom_bond_atom_site_label_1
_geom_bond_atom_site_label_2
_geom_bond_distance
_geom_bond_site_symmetry_1
_geom_bond_site_symmetry_2
C1 C2 1.415 1_555 1_555
C2 C3 1.393 1_555 1_555
C3 H1 0.950 1_555 1_555
C4 C3 1.383 1_555 1_555
H2 C4 0.951 1_555 1_555
C5 C4 1.383 1_555 1_555
H3 C5 0.950 1_555 1_555
C6 C1 1.406 1_555 1_555
H4 C6 0.950 1_555 1_555
C7 C1 1.425 1_555 1_555
C8 C7 1.202 1_555 1_555
C9 C8 1.430 1_555 1_555
C10 C9 1.422 1_555 1_555
C11 C10 1.418 1_555 1_555
H5 C11 0.949 1_555 1_555
C12 C11 1.351 1_555 1_555
H6 C12 0.950 1_555 1_555
C13 C12 1.419 1_555 1_555
H7 C13 0.950 1_555 1_555
C14 C13 1.349 1_555 1_555
H8 C14 0.951 1_555 1_555
C15 C10 1.430 1_555 1_555
C16 C15 1.392 1_555 1_555
H9 C16 0.950 1_555 1_555
C17 C16 1.393 1_555 1_555
C18 C17 1.418 1_555 1_555
H10 C18 0.950 1_555 1_555
C19 C18 1.352 1_555 1_555
H11 C19 0.951 1_555 1_555
C20 C19 1.413 1_555 1_555
H12 C20 0.950 1_555 1_555
C21 C20 1.360 1_555 1_555
H13 C21 0.950 1_555 1_555
C22 C9 1.417 1_555 1_555
C23 C2 1.435 1_555 1_555
C24 C23 1.203 1_555 1_555
C25 C24 1.432 1_555 1_555
C26 C25 1.412 1_555 1_555
C27 C26 1.419 1_555 1_555
H14 C27 0.951 1_555 1_555
C28 C27 1.365 1_555 1_555
H15 C28 0.950 1_555 1_555
C29 C28 1.410 1_555 1_555
H16 C29 0.949 1_555 1_555
C30 C29 1.353 1_555 1_555
H17 C30 0.950 1_555 1_555
C31 C26 1.432 1_555 1_555
C32 C31 1.393 1_555 1_555
H18 C32 0.950 1_555 1_555
C33 C32 1.393 1_555 1_555
C34 C33 1.427 1_555 1_555
H19 C34 0.950 1_555 1_555
C35 C34 1.353 1_555 1_555
H20 C35 0.950 1_555 1_555
C36 C35 1.404 1_555 1_555
H21 C36 0.950 1_555 1_555
C37 C36 1.358 1_555 1_555
H22 C37 0.951 1_555 1_555
C38 C25 1.413 1_555 1_555
C5 C6 1.381 1_555 1_555
C14 C15 1.429 1_555 1_555
C17 C22 1.432 1_555 1_555
C21 C22 1.420 1_555 1_555
C30 C31 1.429 1_555 1_555
C33 C38 1.432 1_555 1_555
C37 C38 1.418 1_555 1_555
#END
