
#######################################################################
#
#                 Cambridge Crystallographic Data Centre
#                                CCDC
#
#######################################################################
#
# If this CIF has been generated from an entry in the Cambridge
# Structural Database, then it will include bibliographic, chemical,
# crystal, experimental, refinement or atomic coordinate data resulting
# from the CCDC's data processing and validation procedures.
#
#######################################################################

data_CSD_CIF_VUBVUJ
_audit_creation_date 1992-12-10
_audit_creation_method CSD-ConQuest-V1
_database_code_CSD VUBVUJ
_chemical_formula_sum 'C22 H12'
_chemical_formula_moiety
;
C22 H12
;
_journal_coeditor_code "IUCr HA0107"
_journal_coden_Cambridge 591
_journal_volume 48
_journal_year 1992
_journal_page_first 1633
_journal_name_full 'Acta Crystallogr.,Sect.C:Cryst.Struct.Commun. '
loop_
_publ_author_name
"P.G.Jones"
"P.Bubenitschek"
"G.M.Sheldrick"
"G.Dyker"
_chemical_name_systematic
;
Acenaphtho(1,2-a)acenaphthylene
;
_cell_volume    670.051
_exptl_crystal_colour 'red'
_exptl_crystal_density_diffrn 1.37
_diffrn_ambient_temperature 178
#These two values have been output from a single CSD field.
_refine_ls_R_factor_gt 0.048
_refine_ls_wR_factor_gt 0.048
_symmetry_cell_setting monoclinic
_symmetry_space_group_name_H-M 'P 21/c'
_symmetry_Int_Tables_number 14
loop_
_symmetry_equiv_pos_site_id
_symmetry_equiv_pos_as_xyz
1 x,y,z
2 -x,1/2+y,1/2-z
3 -x,-y,-z
4 x,-1/2-y,-1/2+z
_cell_length_a 10.946(4)
_cell_length_b 5.817(2)
_cell_length_c 10.551(4)
_cell_angle_alpha 90
_cell_angle_beta 94.15(3)
_cell_angle_gamma 90
_cell_formula_units_Z 2
loop_
_atom_type_symbol
_atom_type_radius_bond
C 0.68
loop_
_atom_site_label
_atom_site_type_symbol
_atom_site_fract_x
_atom_site_fract_y
_atom_site_fract_z
C1 C 0.3632(2) 0.3350(5) 0.5250(2)
C2 C 0.2926(2) 0.1665(5) 0.5736(2)
C3 C 0.1660(3) 0.1627(5) 0.5364(3)
C4 C 0.1111(3) 0.3194(5) 0.4540(3)
C5 C 0.1818(2) 0.4968(5) 0.4018(2)
C6 C 0.1396(3) 0.6727(5) 0.3168(2)
C7 C 0.2201(3) 0.8305(5) 0.2747(2)
C8 C 0.3467(3) 0.8285(5) 0.3149(3)
C9 C 0.3899(2) 0.6614(5) 0.3979(2)
C10 C 0.3058(2) 0.4964(5) 0.4394(2)
C11 C 0.4921(3) 0.4035(4) 0.5373(2)
C11B C 0.5079(3) 0.5965(4) 0.4627(2)
C9B C 0.6101(2) 0.3386(5) 0.6021(2)
C1B C 0.6368(2) 0.6650(5) 0.4750(2)
C8B C 0.6533(3) 0.1715(5) 0.6851(3)
C10B C 0.6942(2) 0.5036(5) 0.5606(2)
C2B C 0.7074(2) 0.8335(5) 0.4264(2)
C7B C 0.7799(3) 0.1695(5) 0.7253(2)
C5B C 0.8182(2) 0.5032(5) 0.5982(2)
C3B C 0.8340(3) 0.8373(5) 0.4636(3)
C6B C 0.8604(3) 0.3273(5) 0.6832(2)
C4B C 0.8889(3) 0.6806(5) 0.5460(3)
loop_
_geom_bond_atom_site_label_1
_geom_bond_atom_site_label_2
_geom_bond_distance
_geom_bond_site_symmetry_1
_geom_bond_site_symmetry_2
C1 C2 1.370 1_555 1_555
C2 C3 1.413 1_555 1_555
C3 C4 1.368 1_555 1_555
C4 C5 1.424 1_555 1_555
C5 C6 1.416 1_555 1_555
C6 C7 1.369 1_555 1_555
C7 C8 1.420 1_555 1_555
C8 C9 1.369 1_555 1_555
C9 C10 1.421 1_555 1_555
C10 C1 1.418 1_555 1_555
C11 C1 1.463 1_555 1_555
C11B C9 1.466 1_555 1_555
C9B C11 1.466 1_555 1_555
C1B C11B 1.463 1_555 1_555
C8B C9B 1.369 1_555 1_555
C10B C9B 1.421 1_555 1_555
C2B C1B 1.370 1_555 1_555
C7B C8B 1.420 1_555 1_555
C5B C10B 1.386 1_555 1_555
C3B C2B 1.413 1_555 1_555
C6B C7B 1.369 1_555 1_555
C4B C5B 1.424 1_555 1_555
C5 C10 1.386 1_555 1_555
C11 C11B 1.389 1_555 1_555
C1B C10B 1.418 1_555 1_555
C5B C6B 1.416 1_555 1_555
C3B C4B 1.368 1_555 1_555
#END
