
#######################################################################
#
#                 Cambridge Crystallographic Data Centre
#                                CCDC
#
#######################################################################
#
# If this CIF has been generated from an entry in the Cambridge
# Structural Database, then it will include bibliographic, chemical,
# crystal, experimental, refinement or atomic coordinate data resulting
# from the CCDC's data processing and validation procedures.
#
#######################################################################

data_CSD_CIF_VUFHOU
_audit_creation_date 2010-08-06
_audit_creation_method CSD-ConQuest-V1
_database_code_CSD VUFHOU
_database_code_depnum_ccdc_archive 'CCDC 747823'
_chemical_formula_sum 'C38 H16'
_chemical_formula_moiety
;
C38 H16
;
_journal_coden_Cambridge 4
_journal_volume 131
_journal_year 2009
_journal_page_first 10537
_journal_name_full 'J.Am.Chem.Soc. '
loop_
_publ_author_name
"B.D.Steinberg"
"E.A.Jackson"
"A.S.Filatov"
"A.Wakamiya"
"M.A.Petrukhina"
"L.T.Scott"
_chemical_name_systematic
;
Tri-indeno(1,2,3-bc:1',2',3'-ef:1'',2'',3''-kl)corannulene
;
_cell_volume   1026.256
_exptl_crystal_colour 'orange'
_exptl_crystal_density_diffrn 1.529
_exptl_crystal_description 'block'
_diffrn_ambient_temperature 100
#These two values have been output from a single CSD field.
_refine_ls_R_factor_gt 0.0493
_refine_ls_wR_factor_gt 0.0493
_symmetry_cell_setting orthorhombic
_symmetry_space_group_name_H-M 'P m n 21'
_symmetry_Int_Tables_number 31
loop_
_symmetry_equiv_pos_site_id
_symmetry_equiv_pos_as_xyz
1 x,y,z
2 1/2-x,-y,1/2+z
3 1/2+x,-y,1/2+z
4 -x,y,z
_cell_length_a 17.238(2)
_cell_length_b 14.184(2)
_cell_length_c 4.1973(6)
_cell_angle_alpha 90
_cell_angle_beta 90
_cell_angle_gamma 90
_cell_formula_units_Z 2
loop_
_atom_type_symbol
_atom_type_radius_bond
C 0.68
H 0.23
loop_
_atom_site_label
_atom_site_type_symbol
_atom_site_fract_x
_atom_site_fract_y
_atom_site_fract_z
C1 C 0.50000 -0.0269(3) 0.3942(11)
C2 C 0.56728(16) 0.0310(2) 0.3891(8)
C3 C 0.54071(16) 0.1246(2) 0.3562(7)
C4 C 0.50000 -0.1066(3) 0.5706(11)
C5 C 0.56841(17) -0.1405(2) 0.7165(8)
C6 C 0.63362(17) -0.0847(2) 0.7183(7)
H1 H 0.67990 -0.10720 0.81470
C7 C 0.63228(16) 0.0080(2) 0.5747(7)
C8 C 0.67804(15) 0.08654(19) 0.6930(7)
H2 H 0.72670 0.07530 0.79250
C9 C 0.65082(16) 0.17734(19) 0.6607(7)
C10 C 0.57848(16) 0.1954(2) 0.5082(7)
C11 C 0.53962(16) 0.2768(2) 0.6384(7)
C12 C 0.54104(18) -0.2208(2) 0.9093(8)
C13 C 0.58144(18) -0.2875(2) 1.0810(7)
H3 H 0.63660 -0.28790 1.08160
C14 C 0.53986(18) -0.3542(2) 1.2533(8)
H4 H 0.56700 -0.40050 1.37300
C15 C 0.66812(17) 0.2645(2) 0.8386(7)
C16 C 0.60264(16) 0.3247(2) 0.8220(7)
C17 C 0.60510(16) 0.4136(2) 0.9698(7)
H5 H 0.56230 0.45560 0.95960
C18 C 0.67186(17) 0.4373(2) 1.1297(8)
H6 H 0.67470 0.49690 1.23220
C19 C 0.73487(17) 0.3776(2) 1.1467(8)
H7 H 0.78000 0.39680 1.25940
C20 C 0.73319(16) 0.2923(2) 1.0054(8)
H8 H 0.77670 0.25140 1.02050
C2C C 0.43272(16) 0.0310(2) 0.3891(8)
C3C C 0.45929(16) 0.1246(2) 0.3562(7)
C5C C 0.43159(17) -0.1405(2) 0.7165(8)
C6C C 0.36638(17) -0.0847(2) 0.7183(7)
H1C H 0.32010 -0.10720 0.81470
C7C C 0.36772(16) 0.0080(2) 0.5747(7)
C8C C 0.32196(15) 0.08654(19) 0.6930(7)
H2C H 0.27330 0.07530 0.79250
C9C C 0.34918(16) 0.17734(19) 0.6607(7)
C10C C 0.42152(16) 0.1954(2) 0.5082(7)
C11C C 0.46038(16) 0.2768(2) 0.6384(7)
C12C C 0.45896(18) -0.2208(2) 0.9093(8)
C13C C 0.41856(18) -0.2875(2) 1.0810(7)
H3C H 0.36340 -0.28790 1.08160
C14C C 0.46014(18) -0.3542(2) 1.2533(8)
H4C H 0.43300 -0.40050 1.37300
C15C C 0.33188(17) 0.2645(2) 0.8386(7)
C16C C 0.39736(16) 0.3247(2) 0.8220(7)
C17C C 0.39490(16) 0.4136(2) 0.9698(7)
H5C H 0.43770 0.45560 0.95960
C18C C 0.32814(17) 0.4373(2) 1.1297(8)
H6C H 0.32530 0.49690 1.23220
C19C C 0.26513(17) 0.3776(2) 1.1467(8)
H7C H 0.22000 0.39680 1.25940
C20C C 0.26681(16) 0.2923(2) 1.0054(8)
H8C H 0.22330 0.25140 1.02050
loop_
_geom_bond_atom_site_label_1
_geom_bond_atom_site_label_2
_geom_bond_distance
_geom_bond_site_symmetry_1
_geom_bond_site_symmetry_2
C1 C2 1.421 1_555 1_555
C2 C3 1.411 1_555 1_555
C3 C10 1.356 1_555 1_555
C4 C1 1.351 1_555 1_555
C5 C4 1.413 1_555 1_555
C6 C5 1.375 1_555 1_555
H1 C6 0.950 1_555 1_555
C7 C2 1.403 1_555 1_555
C8 C7 1.453 1_555 1_555
H2 C8 0.950 1_555 1_555
C9 C8 1.377 1_555 1_555
C10 C9 1.425 1_555 1_555
C11 C10 1.442 1_555 1_555
C12 C5 1.475 1_555 1_555
C13 C12 1.378 1_555 1_555
H3 C13 0.951 1_555 1_555
C14 C13 1.390 1_555 1_555
H4 C14 0.950 1_555 1_555
C15 C9 1.475 1_555 1_555
C16 C11 1.495 1_555 1_555
C17 C16 1.406 1_555 1_555
H5 C17 0.949 1_555 1_555
C18 C17 1.374 1_555 1_555
H6 C18 0.950 1_555 1_555
C19 C18 1.379 1_555 1_555
H7 C19 0.950 1_555 1_555
C20 C15 1.380 1_555 1_555
H8 C20 0.950 1_555 1_555
C2C C1 1.421 1_555 1_555
C3C C3 1.404 1_555 1_555
C5C C4 1.413 1_555 1_555
C6C C5C 1.375 1_555 1_555
H1C C6C 0.950 1_555 1_555
C7C C2C 1.403 1_555 1_555
C8C C7C 1.453 1_555 1_555
H2C C8C 0.950 1_555 1_555
C9C C8C 1.377 1_555 1_555
C10C C3C 1.356 1_555 1_555
C11C C11 1.366 1_555 1_555
C12C C12 1.415 1_555 1_555
C13C C12C 1.378 1_555 1_555
H3C C13C 0.951 1_555 1_555
C14C C14 1.374 1_555 1_555
H4C C14C 0.950 1_555 1_555
C15C C9C 1.475 1_555 1_555
C16C C11C 1.495 1_555 1_555
C17C C16C 1.406 1_555 1_555
H5C C17C 0.949 1_555 1_555
C18C C17C 1.374 1_555 1_555
H6C C18C 0.950 1_555 1_555
C19C C18C 1.379 1_555 1_555
H7C C19C 0.950 1_555 1_555
C20C C15C 1.380 1_555 1_555
H8C C20C 0.950 1_555 1_555
C6 C7 1.447 1_555 1_555
C15 C16 1.417 1_555 1_555
C19 C20 1.348 1_555 1_555
C2C C3C 1.411 1_555 1_555
C5C C12C 1.475 1_555 1_555
C6C C7C 1.447 1_555 1_555
C9C C10C 1.425 1_555 1_555
C10C C11C 1.442 1_555 1_555
C13C C14C 1.390 1_555 1_555
C15C C16C 1.417 1_555 1_555
C19C C20C 1.348 1_555 1_555
#END
