
#######################################################################
#
#                 Cambridge Crystallographic Data Centre
#                                CCDC
#
#######################################################################
#
# If this CIF has been generated from an entry in the Cambridge
# Structural Database, then it will include bibliographic, chemical,
# crystal, experimental, refinement or atomic coordinate data resulting
# from the CCDC's data processing and validation procedures.
#
#######################################################################

data_CSD_CIF_WAHSAZ
_audit_creation_date 1993-12-06
_audit_creation_method CSD-ConQuest-V1
_database_code_CSD WAHSAZ
_database_code_depnum_ccdc_archive 'CCDC 1289566'
_database_code_depnum_ccdc_fiz 'CSD 56552'
_chemical_formula_sum 'C34 H28'
_chemical_formula_moiety
;
C34 H28
;
_journal_coden_Cambridge 48
_journal_volume 126
_journal_year 1993
_journal_page_first 517
_journal_name_full 'Chem.Ber. '
loop_
_publ_author_name
"A.Anton"
"M.Adam"
"M.Wagner"
"Zhou Qi-Lin"
"K.Mullen"
_chemical_name_systematic
;
2',6'-Diethyl-1,1':5',1''-trinaphthyl
;
_chemical_melting_point 517.15
_cell_volume   1205.312
_exptl_crystal_colour 'colorless'
_exptl_crystal_density_diffrn 1.203
_exptl_special_details
;
Melting point range 517.15-520.15K
meso polymorph

;
_diffrn_ambient_temperature ?
_diffrn_special_details
;
The study was carried out at room temperature,in the range 283-303K

;
#These two values have been output from a single CSD field.
_refine_ls_R_factor_gt 0.045
_refine_ls_wR_factor_gt 0.045
loop_
_citation_database_id_CSD
_citation_special_details
WAHSEC "is a stereoisomer of this entry"
_symmetry_cell_setting monoclinic
_symmetry_space_group_name_H-M 'P 21/n'
_symmetry_Int_Tables_number 14
loop_
_symmetry_equiv_pos_site_id
_symmetry_equiv_pos_as_xyz
1 x,y,z
2 1/2-x,1/2+y,1/2-z
3 -x,-y,-z
4 -1/2+x,-1/2-y,-1/2+z
_cell_length_a 8.290(4)
_cell_length_b 10.048(8)
_cell_length_c 14.470(5)
_cell_angle_alpha 90
_cell_angle_beta 90.22(3)
_cell_angle_gamma 90
_cell_formula_units_Z 2
loop_
_atom_type_symbol
_atom_type_radius_bond
C 0.68
loop_
_atom_site_label
_atom_site_type_symbol
_atom_site_fract_x
_atom_site_fract_y
_atom_site_fract_z
C1 C 0.7889(6) 0.2346(5) 0.0039(4)
C2 C 0.8117(7) 0.1368(5) -0.0596(4)
C3 C 0.7691(7) 0.0024(6) -0.0449(4)
C4 C 0.6988(7) -0.0304(6) 0.0384(4)
C5 C 0.6719(6) 0.0672(5) 0.1074(3)
C6 C 0.5989(7) 0.0406(6) 0.1911(4)
C7 C 0.5750(7) 0.1320(6) 0.2559(4)
C8 C 0.6242(7) 0.2637(6) 0.2404(4)
C9 C 0.6946(6) 0.3009(6) 0.1601(3)
C10 C 0.7190(6) 0.2033(6) 0.0890(3)
C11 C 0.8293(6) 0.3793(5) -0.0180(3)
C12 C 0.9789(6) 0.4340(4) 0.0124(3)
C13 C 1.0886(6) 0.3608(5) 0.0666(3)
C14 C 1.2316(6) 0.4159(5) 0.0949(4)
C15 C 0.7241(6) 0.4528(5) -0.0711(3)
C16 C 0.5644(6) 0.4000(5) -0.1062(3)
C17 C 0.5687(8) 0.3698(6) -0.2085(4)
C12B C 1.0211(6) 0.5660(4) -0.0124(3)
C15B C 1.2759(6) 0.5472(5) 0.0711(3)
C14B C 0.7684(6) 0.5841(5) -0.0949(4)
C11B C 1.1707(6) 0.6207(5) 0.0180(3)
C13B C 0.9114(6) 0.6392(5) -0.0666(3)
C16B C 1.4356(6) 0.6000(5) 0.1062(3)
C1B C 1.2111(6) 0.7654(5) -0.0039(4)
C17B C 1.4313(8) 0.6302(6) 0.2085(4)
C2B C 1.1883(7) 0.8632(5) 0.0596(4)
C10B C 1.2810(6) 0.7967(6) -0.0890(3)
C3B C 1.2309(7) 0.9976(6) 0.0449(4)
C5B C 1.3281(6) 0.9328(5) -0.1074(3)
C9B C 1.3054(6) 0.6991(6) -0.1601(3)
C4B C 1.3012(7) 1.0304(6) -0.0384(4)
C6B C 1.4011(7) 0.9594(6) -0.1911(4)
C8B C 1.3758(7) 0.7363(6) -0.2404(4)
C7B C 1.4250(7) 0.8680(6) -0.2559(4)
loop_
_geom_bond_atom_site_label_1
_geom_bond_atom_site_label_2
_geom_bond_distance
_geom_bond_site_symmetry_1
_geom_bond_site_symmetry_2
C1 C2 1.359 1_555 1_555
C2 C3 1.412 1_555 1_555
C3 C4 1.381 1_555 1_555
C4 C5 1.418 1_555 1_555
C5 C6 1.382 1_555 1_555
C6 C7 1.328 1_555 1_555
C7 C8 1.403 1_555 1_555
C8 C9 1.355 1_555 1_555
C9 C10 1.436 1_555 1_555
C10 C1 1.399 1_555 1_555
C11 C1 1.526 1_555 1_555
C12 C11 1.425 1_555 1_555
C13 C12 1.406 1_555 1_555
C14 C13 1.370 1_555 1_555
C15 C11 1.375 1_555 1_555
C16 C15 1.512 1_555 1_555
C17 C16 1.512 1_555 1_555
C12B C12 1.418 1_555 1_555
C15B C14 1.412 1_555 1_555
C14B C15 1.412 1_555 1_555
C11B C12B 1.425 1_555 1_555
C13B C12B 1.406 1_555 1_555
C16B C15B 1.512 1_555 1_555
C1B C11B 1.526 1_555 1_555
C17B C16B 1.512 1_555 1_555
C2B C1B 1.359 1_555 1_555
C10B C1B 1.399 1_555 1_555
C3B C2B 1.412 1_555 1_555
C5B C10B 1.447 1_555 1_555
C9B C10B 1.436 1_555 1_555
C4B C3B 1.381 1_555 1_555
C6B C5B 1.382 1_555 1_555
C8B C9B 1.355 1_555 1_555
C7B C6B 1.328 1_555 1_555
C5 C10 1.447 1_555 1_555
C15B C11B 1.375 1_555 1_555
C14B C13B 1.370 1_555 1_555
C5B C4B 1.418 1_555 1_555
C8B C7B 1.403 1_555 1_555
#END
