
#######################################################################
#
#                 Cambridge Crystallographic Data Centre
#                                CCDC
#
#######################################################################
#
# If this CIF has been generated from an entry in the Cambridge
# Structural Database, then it will include bibliographic, chemical,
# crystal, experimental, refinement or atomic coordinate data resulting
# from the CCDC's data processing and validation procedures.
#
#######################################################################

data_CSD_CIF_WAHSED
_audit_creation_date 1993-12-06
_audit_creation_method CSD-ConQuest-V1
_database_code_CSD WAHSED
_database_code_depnum_ccdc_archive 'CCDC 1289568'
_database_code_depnum_ccdc_fiz 'CSD 56552'
_chemical_formula_sum 'C34 H24'
_chemical_formula_moiety
;
C34 H24
;
_journal_coden_Cambridge 48
_journal_volume 126
_journal_year 1993
_journal_page_first 517
_journal_name_full 'Chem.Ber. '
loop_
_publ_author_name
"A.Anton"
"M.Adam"
"M.Wagner"
"Zhou Qi-Lin"
"K.Mullen"
_chemical_name_systematic
;
7,15-Diethylterrylene
;
_chemical_melting_point 523.15
_cell_volume   2125.134
_exptl_crystal_density_diffrn 1.352
_exptl_special_details
;
Melts above 523.15K

;
_diffrn_ambient_temperature ?
_diffrn_special_details
;
The study was carried out at room temperature,in the range 283-303K

;
#These two values have been output from a single CSD field.
_refine_ls_R_factor_gt 0.037
_refine_ls_wR_factor_gt 0.037
_symmetry_cell_setting monoclinic
_symmetry_space_group_name_H-M 'C 2/c'
_symmetry_Int_Tables_number 15
loop_
_symmetry_equiv_pos_site_id
_symmetry_equiv_pos_as_xyz
1 x,y,z
2 1/2+x,1/2+y,z
3 -x,y,1/2-z
4 1/2-x,1/2+y,1/2-z
5 -x,-y,-z
6 -1/2-x,-1/2-y,-z
7 x,-y,-1/2+z
8 -1/2+x,-1/2-y,-1/2+z
_cell_length_a 24.098(2)
_cell_length_b 6.442(2)
_cell_length_c 13.819(1)
_cell_angle_alpha 90
_cell_angle_beta 97.853(6)
_cell_angle_gamma 90
_cell_formula_units_Z 4
loop_
_atom_type_symbol
_atom_type_radius_bond
C 0.68
loop_
_atom_site_label
_atom_site_type_symbol
_atom_site_fract_x
_atom_site_fract_y
_atom_site_fract_z
C1 C 0.550(1) 0.1069(5) 0.1130(2)
C2 C 0.5364(1) -0.0803(5) 0.1526(2)
C3 C 0.5778(1) -0.2191(5) 0.1931(2)
C4 C 0.6334(1) -0.1696(5) 0.1948(2)
C5 C 0.6493(1) 0.0160(5) 0.1524(2)
C6 C 0.7062(1) 0.0705(5) 0.1554(2)
C7 C 0.7202(1) 0.2523(6) 0.1153(2)
C8 C 0.6789(1) 0.3831(5) 0.0653(2)
C9 C 0.6224(1) 0.3320(5) 0.0557(2)
C10 C 0.6074(1) 0.1511(5) 0.1062(2)
C11 C 0.4557(1) 0.2630(5) 0.1094(2)
C12 C 0.5084(1) 0.2665(5) 0.0802(2)
C13 C 0.5219(1) 0.4319(5) 0.0198(2)
C14 C 0.5783(1) 0.4586(5) -0.0014(2)
C15 C 0.4125(1) 0.3985(5) 0.0734(2)
C16 C 0.3596(1) 0.3767(5) 0.1213(2)
C17 C 0.3253(1) 0.1818(6) 0.0892(2)
C13D C 0.4781(1) 0.5681(5) -0.0198(2)
C15D C 0.5875(1) 0.6015(5) -0.0734(2)
C14D C 0.4217(1) 0.5414(5) 0.0014(2)
C12D C 0.4916(1) 0.7335(5) -0.0802(2)
C11D C 0.5443(1) 0.7370(5) -0.1094(2)
C16D C 0.6404(1) 0.6233(5) -0.1213(2)
C9D C 0.3776(1) 0.6680(5) -0.0557(2)
C1D C 0.450(1) 0.8931(5) -0.1130(2)
C17D C 0.6747(1) 0.8182(6) -0.0892(2)
C8D C 0.3211(1) 0.6169(5) -0.0653(2)
C10D C 0.3926(1) 0.8489(5) -0.1062(2)
C2D C 0.4636(1) 1.0803(5) -0.1526(2)
C7D C 0.2798(1) 0.7477(6) -0.1153(2)
C5D C 0.3507(1) 0.9840(5) -0.1524(2)
C3D C 0.4222(1) 1.2191(5) -0.1931(2)
C6D C 0.2938(1) 0.9295(5) -0.1554(2)
C4D C 0.3666(1) 1.1696(5) -0.1948(2)
loop_
_geom_bond_atom_site_label_1
_geom_bond_atom_site_label_2
_geom_bond_distance
_geom_bond_site_symmetry_1
_geom_bond_site_symmetry_2
C1 C2 1.382 1_555 1_555
C2 C3 1.398 1_555 1_555
C3 C4 1.374 1_555 1_555
C4 C5 1.407 1_555 1_555
C5 C6 1.411 1_555 1_555
C6 C7 1.358 1_555 1_555
C7 C8 1.411 1_555 1_555
C8 C9 1.389 1_555 1_555
C9 C10 1.430 1_555 1_555
C10 C1 1.428 1_555 1_555
C11 C12 1.384 1_555 1_555
C12 C1 1.464 1_555 1_555
C13 C12 1.418 1_555 1_555
C14 C9 1.479 1_555 1_555
C15 C11 1.397 1_555 1_555
C16 C15 1.521 1_555 1_555
C17 C16 1.535 1_555 1_555
C13D C13 1.423 1_555 1_555
C15D C14 1.395 1_555 1_555
C14D C15 1.395 1_555 1_555
C12D C13D 1.418 1_555 1_555
C11D C15D 1.397 1_555 1_555
C16D C15D 1.521 1_555 1_555
C9D C14D 1.479 1_555 1_555
C1D C12D 1.464 1_555 1_555
C17D C16D 1.535 1_555 1_555
C8D C9D 1.389 1_555 1_555
C10D C9D 1.430 1_555 1_555
C2D C1D 1.382 1_555 1_555
C7D C8D 1.411 1_555 1_555
C5D C10D 1.417 1_555 1_555
C3D C2D 1.398 1_555 1_555
C6D C7D 1.358 1_555 1_555
C4D C5D 1.407 1_555 1_555
C5 C10 1.417 1_555 1_555
C13 C14 1.439 1_555 1_555
C13D C14D 1.439 1_555 1_555
C12D C11D 1.384 1_555 1_555
C1D C10D 1.428 1_555 1_555
C5D C6D 1.411 1_555 1_555
C3D C4D 1.374 1_555 1_555
#END
