
#######################################################################
#
#                 Cambridge Crystallographic Data Centre
#                                CCDC
#
#######################################################################
#
# If this CIF has been generated from an entry in the Cambridge
# Structural Database, then it will include bibliographic, chemical,
# crystal, experimental, refinement or atomic coordinate data resulting
# from the CCDC's data processing and validation procedures.
#
#######################################################################

data_CSD_CIF_WAHSEC
_audit_creation_date 1993-12-06
_audit_creation_method CSD-ConQuest-V1
_database_code_CSD WAHSEC
_database_code_depnum_ccdc_archive 'CCDC 1289567'
_database_code_depnum_ccdc_fiz 'CSD 56552'
_chemical_formula_sum 'C34 H28'
_chemical_formula_moiety
;
C34 H28
;
_journal_coden_Cambridge 48
_journal_volume 126
_journal_year 1993
_journal_page_first 517
_journal_name_full 'Chem.Ber. '
loop_
_publ_author_name
"A.Anton"
"M.Adam"
"M.Wagner"
"Zhou Qi-Lin"
"K.Mullen"
_chemical_name_systematic
;
2',6'-Diethyl-1,1':5',1''-trinaphthyl
;
_chemical_melting_point 517.15
_cell_volume   2437.645
_exptl_crystal_colour 'colorless'
_exptl_crystal_density_diffrn 1.19
_exptl_special_details
;
Melting point range 517.15-520.15K
chiral polymorph

;
_diffrn_ambient_temperature ?
_diffrn_special_details
;
The study was carried out at room temperature,in the range 283-303K

;
#These two values have been output from a single CSD field.
_refine_ls_R_factor_gt 0.042
_refine_ls_wR_factor_gt 0.042
loop_
_citation_database_id_CSD
_citation_special_details
WAHSAZ "is a stereoisomer of this entry"
_symmetry_cell_setting monoclinic
_symmetry_space_group_name_H-M 'P 21/n'
_symmetry_Int_Tables_number 14
loop_
_symmetry_equiv_pos_site_id
_symmetry_equiv_pos_as_xyz
1 x,y,z
2 1/2-x,1/2+y,1/2-z
3 -x,-y,-z
4 -1/2+x,-1/2-y,-1/2+z
_cell_length_a 14.918(1)
_cell_length_b 7.8437(7)
_cell_length_c 20.835(2)
_cell_angle_alpha 90
_cell_angle_beta 90.909(6)
_cell_angle_gamma 90
_cell_formula_units_Z 4
loop_
_atom_type_symbol
_atom_type_radius_bond
C 0.68
loop_
_atom_site_label
_atom_site_type_symbol
_atom_site_fract_x
_atom_site_fract_y
_atom_site_fract_z
C1 C 0.1858(2) -0.0182(4) 0.3784(1)
C2 C 0.2462(2) -0.0510(4) 0.3315(1)
C3 C 0.2216(2) -0.1443(5) 0.2757(1)
C4 C 0.1352(2) -0.2029(5) 0.2682(1)
C5 C 0.0713(2) -0.1697(4) 0.3146(1)
C6 C -0.0187(2) -0.2253(4) 0.3077(1)
C7 C -0.0815(2) -0.1901(4) 0.3522(1)
C8 C -0.0567(2) -0.0997(4) 0.4070(1)
C9 C 0.0293(2) -0.0454(4) 0.4168(1)
C10 C 0.0968(2) -0.0762(3) 0.3706(1)
C11 C 0.2167(2) 0.0746(3) 0.4379(1)
C12 C 0.1970(2) 0.2450(4) 0.4474(1)
C13 C 0.2317(2) 0.3273(3) 0.5028(1)
C14 C 0.2865(2) 0.2463(3) 0.5460(1)
C15 C 0.3095(2) 0.0720(3) 0.5375(1)
C16 C 0.2714(2) -0.0146(3) 0.4837(1)
C17 C 0.2911(2) -0.1910(3) 0.4774(1)
C18 C 0.3470(2) -0.2706(3) 0.5197(1)
C19 C 0.3882(2) -0.1844(3) 0.5715(1)
C20 C 0.3697(2) -0.0138(3) 0.5804(1)
C21 C 0.4156(2) 0.0855(3) 0.6329(1)
C22 C 0.4939(2) 0.1700(4) 0.6200(1)
C23 C 0.5392(2) 0.2643(4) 0.6681(2)
C24 C 0.5061(2) 0.2721(4) 0.7288(2)
C25 C 0.4256(2) 0.1880(3) 0.7441(1)
C26 C 0.3887(2) 0.1949(4) 0.8063(1)
C27 C 0.3110(2) 0.1122(4) 0.8201(1)
C28 C 0.2653(2) 0.0207(4) 0.7725(1)
C29 C 0.2983(2) 0.0109(4) 0.7116(1)
C30 C 0.3791(2) 0.0937(3) 0.6956(1)
C31 C 0.4537(2) -0.2816(4) 0.6135(1)
C32 C 0.5447(2) -0.3025(5) 0.5821(2)
C33 C 0.1431(2) 0.3516(4) 0.3993(1)
C34 C 0.0648(2) 0.4364(5) 0.4297(2)
loop_
_geom_bond_atom_site_label_1
_geom_bond_atom_site_label_2
_geom_bond_distance
_geom_bond_site_symmetry_1
_geom_bond_site_symmetry_2
C1 C2 1.364 1_555 1_555
C2 C3 1.417 1_555 1_555
C3 C4 1.375 1_555 1_555
C4 C5 1.393 1_555 1_555
C5 C6 1.417 1_555 1_555
C6 C7 1.357 1_555 1_555
C7 C8 1.389 1_555 1_555
C8 C9 1.364 1_555 1_555
C9 C10 1.425 1_555 1_555
C10 C1 1.410 1_555 1_555
C11 C1 1.504 1_555 1_555
C12 C11 1.383 1_555 1_555
C13 C12 1.414 1_555 1_555
C14 C13 1.363 1_555 1_555
C15 C14 1.421 1_555 1_555
C16 C11 1.429 1_555 1_555
C17 C16 1.421 1_555 1_555
C18 C17 1.356 1_555 1_555
C19 C18 1.407 1_555 1_555
C20 C15 1.426 1_555 1_555
C21 C20 1.499 1_555 1_555
C22 C21 1.373 1_555 1_555
C23 C22 1.409 1_555 1_555
C24 C23 1.366 1_555 1_555
C25 C24 1.411 1_555 1_555
C26 C25 1.417 1_555 1_555
C27 C26 1.363 1_555 1_555
C28 C27 1.394 1_555 1_555
C29 C28 1.370 1_555 1_555
C30 C21 1.425 1_555 1_555
C31 C19 1.508 1_555 1_555
C32 C31 1.525 1_555 1_555
C33 C12 1.525 1_555 1_555
C34 C33 1.494 1_555 1_555
C5 C10 1.425 1_555 1_555
C15 C16 1.422 1_555 1_555
C19 C20 1.379 1_555 1_555
C25 C30 1.424 1_555 1_555
C29 C30 1.414 1_555 1_555
#END
