
#######################################################################
#
#                 Cambridge Crystallographic Data Centre
#                                CCDC
#
#######################################################################
#
# If this CIF has been generated from an entry in the Cambridge
# Structural Database, then it will include bibliographic, chemical,
# crystal, experimental, refinement or atomic coordinate data resulting
# from the CCDC's data processing and validation procedures.
#
#######################################################################

data_CSD_CIF_WAJZOW
_audit_creation_date 1994-03-15
_audit_creation_method CSD-ConQuest-V1
_database_code_CSD WAJZOW
_database_code_depnum_ccdc_fiz 'CSD 57024'
_chemical_formula_sum 'C33 H22'
_chemical_formula_moiety
;
C33 H22
;
_journal_coden_Cambridge 1088
_journal_year 1993
_journal_page_first 253
_journal_name_full 'Synlett '
loop_
_publ_author_name
"H.Buchholz"
"A.de Meijere"
_chemical_name_systematic
;
(2.1)Paracyclo-(3,5)-naphthalinophane
;
_cell_volume   1055.016
_exptl_crystal_density_diffrn 1.32
_exptl_special_details
;
Several of the coordinates given in the deposition are illegible and have 
been re-calculated
;
_diffrn_ambient_temperature ?
_diffrn_special_details
;
The study was carried out at room temperature,in the range 283-303K

;
#These two values have been output from a single CSD field.
_refine_ls_R_factor_gt 0.041
_refine_ls_wR_factor_gt 0.041
_symmetry_cell_setting triclinic
_symmetry_space_group_name_H-M 'P -1'
_symmetry_Int_Tables_number 2
loop_
_symmetry_equiv_pos_site_id
_symmetry_equiv_pos_as_xyz
1 x,y,z
2 -x,-y,-z
_cell_length_a 8.120(2)
_cell_length_b 10.623(3)
_cell_length_c 13.263(5)
_cell_angle_alpha 68.78(3)
_cell_angle_beta 88.72(3)
_cell_angle_gamma 81.79(2)
_cell_formula_units_Z 2
loop_
_atom_type_symbol
_atom_type_radius_bond
C 0.68
H 0.23
loop_
_atom_site_label
_atom_site_type_symbol
_atom_site_fract_x
_atom_site_fract_y
_atom_site_fract_z
C1 C 0.0972(2) 0.4571(2) -0.24640(11)
H1 H 0.076(2) 0.542(2) -0.3100(14)
C2 C -0.0060(2) 0.3633(2) -0.21847(11)
H2 H -0.107(2) 0.373(2) -0.2666(14)
C3 C 0.0299(2) 0.24186(13) -0.11556(11)
C4 C -0.0262(2) 0.2487(2) -0.01801(11)
H3 H -0.123(2) 0.313(2) -0.0175(12)
C5 C 0.0687(2) 0.17922(14) 0.07685(10)
H4 H 0.042(2) 0.200(2) 0.1437(13)
C6 C 0.22055(14) 0.09991(12) 0.07506(9)
C7 C 0.2519(2) 0.06764(13) -0.01615(11)
H5 H 0.353(2) 0.006(2) -0.0191(12)
C8 C 0.1579(2) 0.1381(2) -0.11080(11)
H6 H 0.197(2) 0.122(2) -0.1756(14)
C9 C 0.36083(14) 0.08273(12) 0.15314(9)
C10 C 0.46849(14) 0.18048(12) 0.12488(9)
C11 C 0.4319(2) 0.29874(12) 0.01926(10)
C12 C 0.4865(2) 0.2896(2) -0.07799(11)
H7 H 0.573(2) 0.219(2) -0.0796(12)
C13 C 0.3915(2) 0.3594(2) -0.17324(11)
H8 H 0.416(2) 0.332(2) -0.2371(13)
C14 C 0.2415(2) 0.44046(13) -0.17143(10)
C15 C 0.2116(2) 0.47443(14) -0.08073(11)
H9 H 0.112(2) 0.538(2) -0.0811(12)
C16 C 0.3057(2) 0.40424(14) 0.01423(11)
H10 H 0.268(2) 0.418(2) 0.0813(13)
C17 C 0.6059(2) 0.16493(13) 0.19447(10)
H11 H 0.681(2) 0.2232(15) 0.1702(11)
C18 C 0.61887(14) 0.06250(13) 0.29442(9)
C19 C 0.7953(2) 0.0820(2) 0.35805(11)
H12 H 0.881(2) 0.074(2) 0.3007(14)
H13 H 0.788(2) 0.128(2) 0.3853(13)
C20 C 0.84649(14) -0.08577(14) 0.4454(1)
C21 C 0.8300(2) -0.1046(2) 0.55504(10)
H14 H 0.826(2) -0.023(2) 0.5738(12)
C22 C 0.7828(2) -0.2245(2) 0.6262(1)
H15 H 0.751(2) -0.227(2) 0.6977(13)
C23 C 0.7498(2) -0.32470(14) 0.58788(10)
C24 C 0.8200(2) -0.3221(2) 0.48996(11)
H16 H 0.809(2) -0.399(2) 0.4651(13)
C25 C 0.8693(2) -0.2029(2) 0.42008(11)
H17 H 0.897(2) -0.196(2) 0.3423(14)
C26 C 0.6040(2) -0.3980(2) 0.62548(11)
C27 C 0.4605(2) -0.3563(2) 0.56638(11)
H18 H 0.361(2) -0.410(2) 0.5948(13)
C28 C 0.4281(2) -0.24041(13) 0.46092(10)
C29 C 0.3084(2) -0.23921(13) 0.3839(1)
H19 H 0.248(2) -0.319(2) 0.4026(12)
C30 C 0.2844(2) -0.13318(13) 0.28648(10)
H20 H 0.196(2) -0.1324(15) 0.2340(12)
C31 C 0.38509(13) -0.02679(12) 0.25473(5)
C32 C 0.51216(18) -0.02054(12) 0.3002(9)
C33 C 0.51455(14) -0.12169(13) 0.43363(9)
H21 H 0.580(2) -0.1199(13) 0.4877(11)
loop_
_geom_bond_atom_site_label_1
_geom_bond_atom_site_label_2
_geom_bond_distance
_geom_bond_site_symmetry_1
_geom_bond_site_symmetry_2
C1 H1 0.983 1_555 1_555
C2 C1 1.338 1_555 1_555
H2 C2 1.021 1_555 1_555
C3 C2 1.499 1_555 1_555
C4 C3 1.385 1_555 1_555
H3 C4 0.967 1_555 1_555
C5 C4 1.389 1_555 1_555
H4 C5 1.001 1_555 1_555
C6 C5 1.395 1_555 1_555
C7 C6 1.381 1_555 1_555
H5 C7 0.984 1_555 1_555
C8 C3 1.387 1_555 1_555
H6 C8 0.973 1_555 1_555
C9 C6 1.503 1_555 1_555
C10 C9 1.395 1_555 1_555
C11 C10 1.506 1_555 1_555
C12 C11 1.387 1_555 1_555
H7 C12 0.957 1_555 1_555
C13 C12 1.394 1_555 1_555
H8 C13 0.998 1_555 1_555
C14 C1 1.503 1_555 1_555
C15 C14 1.383 1_555 1_555
H9 C15 0.976 1_555 1_555
C16 C11 1.390 1_555 1_555
H10 C16 0.988 1_555 1_555
C17 C10 1.417 1_555 1_555
H11 C17 0.902 1_555 1_555
C18 C17 1.372 1_555 1_555
C19 C18 1.753 1_555 1_555
H12 C19 1.037 1_555 1_555
H13 C19 0.701 1_555 1_555
C20 C19 1.734 1_555 1_555
C21 C20 1.400 1_555 1_555
H14 C21 0.981 1_555 1_555
C22 C21 1.383 1_555 1_555
H15 C22 0.969 1_555 1_555
C23 C22 1.394 1_555 1_555
C24 C23 1.399 1_555 1_555
H16 C24 1.001 1_555 1_555
C25 C20 1.389 1_555 1_555
H17 C25 1.029 1_555 1_555
C26 C23 1.487 1_555 1_555
C27 C26 1.346 1_555 1_555
H18 C27 1.040 1_555 1_555
C28 C27 1.490 1_555 1_555
C29 C28 1.421 1_555 1_555
H19 C29 0.991 1_555 1_555
C30 C29 1.368 1_555 1_555
H20 C30 1.008 1_555 1_555
C31 C9 1.421 1_555 1_555
C32 C18 1.304 1_555 1_555
C33 C28 1.458 1_555 1_555
H21 C33 0.909 1_555 1_555
C7 C8 1.385 1_555 1_555
C13 C14 1.393 1_555 1_555
C15 C16 1.388 1_555 1_555
C24 C25 1.379 1_555 1_555
C30 C31 1.424 1_555 1_555
C31 C32 1.228 1_555 1_555
C32 C33 1.705 1_555 1_555
#END
