
#######################################################################
#
#                 Cambridge Crystallographic Data Centre
#                                CCDC
#
#######################################################################
#
# If this CIF has been generated from an entry in the Cambridge
# Structural Database, then it will include bibliographic, chemical,
# crystal, experimental, refinement or atomic coordinate data resulting
# from the CCDC's data processing and validation procedures.
#
#######################################################################

data_CSD_CIF_WANRIP
_audit_creation_date 2017-04-11
_audit_creation_method CSD-ConQuest-V1
_database_code_CSD WANRIP
_database_code_depnum_ccdc_archive 'CCDC 1413516'
_chemical_formula_sum 'C68 H50'
_chemical_formula_moiety
;
C68 H50
;
_journal_coden_Cambridge 1291
_journal_year 2017
_journal_page_first 1694
_journal_name_full 'Eur.J.Org.Chem. '
loop_
_publ_author_name
"M.S.Little"
"S.G.Yeates"
"A.A.Alwattar"
"K.W.J.Heard"
"J.Raftery"
"A.C.Edwards"
"A.V.S.Parry"
"P.Quayle"
_chemical_name_systematic
;
12,12'-bis(3,5-dimethylphenyl)-5,5',7,7'-tetramethyl-8,8'-bidibenzo[f,pqr]tetr
aphene
;
_cell_volume   2352.041
_exptl_crystal_colour 'yellow'
_exptl_crystal_density_diffrn 1.224
_exptl_crystal_description 'block'
_diffrn_ambient_temperature 180
#These two values have been output from a single CSD field.
_refine_ls_R_factor_gt 0.0533
_refine_ls_wR_factor_gt 0.0533
_symmetry_cell_setting triclinic
_symmetry_space_group_name_H-M 'P -1'
_symmetry_Int_Tables_number 2
loop_
_symmetry_equiv_pos_site_id
_symmetry_equiv_pos_as_xyz
1 x,y,z
2 -x,-y,-z
_cell_length_a 8.4472(3)
_cell_length_b 16.7753(6)
_cell_length_c 18.3596(6)
_cell_angle_alpha 111.767(3)
_cell_angle_beta 100.366(3)
_cell_angle_gamma 93.700(3)
_cell_formula_units_Z 2
loop_
_atom_type_symbol
_atom_type_radius_bond
C 0.68
H 0.23
loop_
_atom_site_label
_atom_site_type_symbol
_atom_site_fract_x
_atom_site_fract_y
_atom_site_fract_z
C1 C 0.7832(2) 0.17570(13) 0.77016(12)
C2 C 0.7189(3) 0.25677(14) 0.78352(13)
C3 C 0.7614(3) 0.32836(14) 0.85914(13)
H1 H 0.82690 0.32160 0.90370
C4 C 0.7103(3) 0.40656(15) 0.86906(14)
H2 H 0.73410 0.45230 0.92080
C5 C 0.6222(3) 0.41917(15) 0.80230(15)
H3 H 0.59590 0.47520 0.80830
C6 C 0.5740(3) 0.35166(15) 0.72884(14)
C7 C 0.6061(3) 0.26584(14) 0.72008(13)
C8 C 0.5179(2) 0.18711(14) 0.65592(12)
C9 C 0.3673(3) 0.18700(14) 0.60483(13)
H4 H 0.33450 0.24080 0.60690
C10 C 0.2712(3) 0.11244(15) 0.55387(13)
H5 H 0.17380 0.11480 0.52010
C11 C 0.3134(3) 0.03088(14) 0.55010(12)
C12 C 0.2057(3) -0.04643(15) 0.50347(13)
H6 H 0.10620 -0.04490 0.47070
C13 C 0.2440(3) -0.12351(15) 0.50533(14)
H7 H 0.16910 -0.17500 0.47530
C14 C 0.3926(3) -0.12734(14) 0.55092(14)
H8 H 0.41720 -0.18170 0.55120
C15 C 0.5056(3) -0.05303(13) 0.59616(12)
C16 C 0.4644(2) 0.02815(13) 0.59752(12)
C17 C 0.5686(2) 0.10723(13) 0.64941(11)
C18 C 0.7198(2) 0.10369(13) 0.69933(12)
C19 C 0.7847(2) 0.02011(13) 0.67482(11)
C20 C 0.6725(3) -0.05727(13) 0.63288(12)
C21 C 0.7267(3) -0.13741(14) 0.61884(13)
H9 H 0.64920 -0.18850 0.59540
C22 C 0.8893(3) -0.14486(15) 0.63790(14)
C23 C 1.0002(3) -0.06891(15) 0.66759(13)
H10 H 1.11300 -0.07330 0.67560
C24 C 0.9531(3) 0.01243(14) 0.68586(12)
C25 C 0.5037(3) 0.37208(14) 0.65789(15)
C26 C 0.3603(3) 0.40752(15) 0.65295(16)
H11 H 0.30450 0.41940 0.69550
C27 C 0.2968(3) 0.42598(15) 0.58601(17)
C28 C 0.3838(4) 0.41104(16) 0.52598(16)
H12 H 0.34230 0.42400 0.48060
C29 C 0.5299(4) 0.37765(15) 0.53045(16)
C30 C 0.5872(3) 0.35753(15) 0.59618(15)
H13 H 0.68550 0.33330 0.59930
C31 C 0.1353(4) 0.4593(2) 0.5792(2)
H14 H 0.15370 0.52270 0.59830
H15 H 0.07120 0.44220 0.61190
H16 H 0.07610 0.43470 0.52280
C32 C 0.6219(5) 0.3623(2) 0.46431(18)
H17 H 0.56400 0.31240 0.41640
H18 H 0.73120 0.35060 0.48220
H19 H 0.63020 0.41390 0.45140
C33 C 1.0858(3) 0.08685(15) 0.70793(14)
H20 H 1.13890 0.10590 0.76480
H21 H 1.03890 0.13500 0.69850
H22 H 1.16600 0.06810 0.67490
C34 C 0.9439(3) -0.23259(17) 0.6212(2)
H23 H 0.96650 -0.24260 0.67110
H24 H 1.04280 -0.23440 0.60000
H25 H 0.85790 -0.27770 0.58150
C35 C 0.9118(2) 0.17122(12) 0.83603(12)
C36 C 1.0573(2) 0.23515(13) 0.86796(12)
C37 C 1.0885(3) 0.29421(14) 0.83171(14)
H26 H 1.01750 0.28880 0.78320
C38 C 1.2189(3) 0.35879(16) 0.86530(16)
H27 H 1.24270 0.39510 0.83820
C39 C 1.3168(3) 0.37101(15) 0.93974(16)
H28 H 1.39980 0.41970 0.96550
C40 C 1.2961(3) 0.31422(14) 0.97656(14)
C41 C 1.1738(2) 0.23879(13) 0.93626(12)
C42 C 1.1746(2) 0.16115(13) 0.95294(12)
C43 C 1.3132(2) 0.14529(14) 1.00106(12)
H29 H 1.39900 0.19160 1.03180
C44 C 1.3253(2) 0.06642(14) 1.00395(12)
H30 H 1.41840 0.05880 1.03710
C45 C 1.2014(2) -0.00501(14) 0.95836(12)
C46 C 1.2198(3) -0.08860(15) 0.95568(13)
H31 H 1.31460 -0.09750 0.98670
C47 C 1.1015(3) -0.15728(15) 0.90861(15)
H32 H 1.11590 -0.21400 0.90570
C48 C 0.9594(3) -0.14396(14) 0.86486(14)
H33 H 0.87870 -0.19230 0.83230
C49 C 0.9329(2) -0.06237(13) 0.86753(12)
C50 C 1.0578(2) 0.00873(13) 0.91376(12)
C51 C 1.0437(2) 0.09329(12) 0.91234(11)
C52 C 0.8991(2) 0.10550(12) 0.86427(11)
C53 C 0.7523(2) 0.04093(13) 0.84256(11)
C54 C 0.7739(2) -0.04435(13) 0.83396(12)
C55 C 0.6396(3) -0.10958(14) 0.80381(13)
H34 H 0.65650 -0.16770 0.79450
C56 C 0.4826(3) -0.09175(15) 0.78724(13)
C57 C 0.4610(2) -0.00581(15) 0.80671(13)
H35 H 0.35340 0.00800 0.80060
C58 C 0.5907(2) 0.06114(14) 0.83493(12)
C59 C 1.3955(3) 0.33691(15) 1.05915(16)
C60 C 1.5643(3) 0.35866(16) 1.07524(19)
H36 H 1.61580 0.35820 1.03320
C61 C 1.6578(4) 0.38120(17) 1.1531(2)
C62 C 1.5799(4) 0.38236(17) 1.2139(2)
H37 H 1.64340 0.39590 1.26640
C63 C 1.4121(4) 0.36425(16) 1.20019(16)
C64 C 1.3219(3) 0.34133(14) 1.12203(14)
H38 H 1.20690 0.32840 1.11160
C65 C 1.8403(4) 0.4042(2) 1.1694(3)
H39 H 1.87080 0.46680 1.19980
H40 H 1.87520 0.38740 1.11830
H41 H 1.89320 0.37320 1.20080
C66 C 1.3308(5) 0.3734(2) 1.26847(18)
H42 H 1.36230 0.33060 1.29090
H43 H 1.21250 0.36370 1.24890
H44 H 1.36440 0.43190 1.31030
C67 C 0.5497(3) 0.15215(15) 0.86381(14)
H45 H 0.51080 0.16700 0.81750
H46 H 0.64700 0.19270 0.89840
H47 H 0.46460 0.15600 0.89440
C68 C 0.3406(3) -0.16349(17) 0.75460(17)
H48 H 0.31920 -0.18830 0.69570
H49 H 0.24420 -0.14010 0.77200
H50 H 0.36590 -0.20870 0.77480
loop_
_geom_bond_atom_site_label_1
_geom_bond_atom_site_label_2
_geom_bond_distance
_geom_bond_site_symmetry_1
_geom_bond_site_symmetry_2
C1 C2 1.449 1_555 1_555
C2 C3 1.424 1_555 1_555
C3 H1 0.950 1_555 1_555
C4 C3 1.365 1_555 1_555
H2 C4 0.950 1_555 1_555
C5 C4 1.409 1_555 1_555
H3 C5 0.951 1_555 1_555
C6 C5 1.370 1_555 1_555
C7 C2 1.428 1_555 1_555
C8 C7 1.446 1_555 1_555
C9 C8 1.438 1_555 1_555
H4 C9 0.950 1_555 1_555
C10 C9 1.351 1_555 1_555
H5 C10 0.950 1_555 1_555
C11 C10 1.416 1_555 1_555
C12 C11 1.409 1_555 1_555
H6 C12 0.949 1_555 1_555
C13 C12 1.364 1_555 1_555
H7 C13 0.949 1_555 1_555
C14 C13 1.397 1_555 1_555
H8 C14 0.950 1_555 1_555
C15 C14 1.396 1_555 1_555
C16 C11 1.423 1_555 1_555
C17 C8 1.403 1_555 1_555
C18 C1 1.392 1_555 1_555
C19 C18 1.479 1_555 1_555
C20 C15 1.468 1_555 1_555
C21 C20 1.396 1_555 1_555
H9 C21 0.949 1_555 1_555
C22 C21 1.381 1_555 1_555
C23 C22 1.395 1_555 1_555
H10 C23 0.950 1_555 1_555
C24 C19 1.421 1_555 1_555
C25 C6 1.499 1_555 1_555
C26 C25 1.387 1_555 1_555
H11 C26 0.949 1_555 1_555
C27 C26 1.400 1_555 1_555
C28 C27 1.389 1_555 1_555
H12 C28 0.950 1_555 1_555
C29 C28 1.389 1_555 1_555
C30 C25 1.395 1_555 1_555
H13 C30 0.950 1_555 1_555
C31 C27 1.509 1_555 1_555
H14 C31 0.980 1_555 1_555
H15 C31 0.980 1_555 1_555
H16 C31 0.981 1_555 1_555
C32 C29 1.509 1_555 1_555
H17 C32 0.980 1_555 1_555
H18 C32 0.980 1_555 1_555
H19 C32 0.980 1_555 1_555
C33 C24 1.503 1_555 1_555
H20 C33 0.979 1_555 1_555
H21 C33 0.980 1_555 1_555
H22 C33 0.980 1_555 1_555
C34 C22 1.509 1_555 1_555
H23 C34 0.979 1_555 1_555
H24 C34 0.981 1_555 1_555
H25 C34 0.980 1_555 1_555
C35 C1 1.501 1_555 1_555
C36 C35 1.452 1_555 1_555
C37 C36 1.419 1_555 1_555
H26 C37 0.950 1_555 1_555
C38 C37 1.369 1_555 1_555
H27 C38 0.951 1_555 1_555
C39 C38 1.399 1_555 1_555
H28 C39 0.950 1_555 1_555
C40 C39 1.376 1_555 1_555
C41 C36 1.427 1_555 1_555
C42 C41 1.444 1_555 1_555
C43 C42 1.437 1_555 1_555
H29 C43 0.950 1_555 1_555
C44 C43 1.353 1_555 1_555
H30 C44 0.951 1_555 1_555
C45 C44 1.418 1_555 1_555
C46 C45 1.404 1_555 1_555
H31 C46 0.950 1_555 1_555
C47 C46 1.369 1_555 1_555
H32 C47 0.950 1_555 1_555
C48 C47 1.399 1_555 1_555
H33 C48 0.950 1_555 1_555
C49 C48 1.385 1_555 1_555
C50 C45 1.419 1_555 1_555
C51 C42 1.409 1_555 1_555
C52 C35 1.387 1_555 1_555
C53 C52 1.483 1_555 1_555
C54 C49 1.472 1_555 1_555
C55 C54 1.398 1_555 1_555
H34 C55 0.950 1_555 1_555
C56 C55 1.384 1_555 1_555
C57 C56 1.384 1_555 1_555
H35 C57 0.950 1_555 1_555
C58 C53 1.423 1_555 1_555
C59 C40 1.491 1_555 1_555
C60 C59 1.398 1_555 1_555
H36 C60 0.950 1_555 1_555
C61 C60 1.402 1_555 1_555
C62 C61 1.389 1_555 1_555
H37 C62 0.951 1_555 1_555
C63 C62 1.387 1_555 1_555
C64 C59 1.388 1_555 1_555
H38 C64 0.950 1_555 1_555
C65 C61 1.512 1_555 1_555
H39 C65 0.979 1_555 1_555
H40 C65 0.980 1_555 1_555
H41 C65 0.981 1_555 1_555
C66 C63 1.499 1_555 1_555
H42 C66 0.980 1_555 1_555
H43 C66 0.980 1_555 1_555
H44 C66 0.980 1_555 1_555
C67 C58 1.505 1_555 1_555
H45 C67 0.980 1_555 1_555
H46 C67 0.980 1_555 1_555
H47 C67 0.980 1_555 1_555
C68 C56 1.505 1_555 1_555
H48 C68 0.981 1_555 1_555
H49 C68 0.980 1_555 1_555
H50 C68 0.979 1_555 1_555
C6 C7 1.437 1_555 1_555
C15 C16 1.420 1_555 1_555
C16 C17 1.433 1_555 1_555
C17 C18 1.450 1_555 1_555
C19 C20 1.419 1_555 1_555
C23 C24 1.383 1_555 1_555
C29 C30 1.385 1_555 1_555
C40 C41 1.441 1_555 1_555
C49 C50 1.421 1_555 1_555
C50 C51 1.441 1_555 1_555
C51 C52 1.446 1_555 1_555
C53 C54 1.408 1_555 1_555
C57 C58 1.391 1_555 1_555
C63 C64 1.395 1_555 1_555
#END
