
#######################################################################
#
#                 Cambridge Crystallographic Data Centre
#                                CCDC
#
#######################################################################
#
# If this CIF has been generated from an entry in the Cambridge
# Structural Database, then it will include bibliographic, chemical,
# crystal, experimental, refinement or atomic coordinate data resulting
# from the CCDC's data processing and validation procedures.
#
#######################################################################

data_CSD_CIF_WANROV
_audit_creation_date 2017-04-11
_audit_creation_method CSD-ConQuest-V1
_database_code_CSD WANROV
_database_code_depnum_ccdc_archive 'CCDC 1062056'
_chemical_formula_sum 'C34 H28'
_chemical_formula_moiety
;
C34 H28
;
_journal_coden_Cambridge 1291
_journal_year 2017
_journal_page_first 1694
_journal_name_full 'Eur.J.Org.Chem. '
loop_
_publ_author_name
"M.S.Little"
"S.G.Yeates"
"A.A.Alwattar"
"K.W.J.Heard"
"J.Raftery"
"A.C.Edwards"
"A.V.S.Parry"
"P.Quayle"
_chemical_name_systematic
;
4,10-bis(3,5-dimethylphenyl)chrysene
;
_cell_volume   2400.405
_exptl_crystal_colour 'white'
_exptl_crystal_density_diffrn 1.208
_exptl_crystal_description 'block'
_diffrn_ambient_temperature 100
#These two values have been output from a single CSD field.
_refine_ls_R_factor_gt 0.0405
_refine_ls_wR_factor_gt 0.0405
_symmetry_cell_setting monoclinic
_symmetry_space_group_name_H-M 'P 21/c'
_symmetry_Int_Tables_number 14
loop_
_symmetry_equiv_pos_site_id
_symmetry_equiv_pos_as_xyz
1 x,y,z
2 -x,1/2+y,1/2-z
3 -x,-y,-z
4 x,-1/2-y,-1/2+z
_cell_length_a 16.2619(7)
_cell_length_b 9.7281(4)
_cell_length_c 15.1953(6)
_cell_angle_alpha 90
_cell_angle_beta 93.071(2)
_cell_angle_gamma 90
_cell_formula_units_Z 4
loop_
_atom_type_symbol
_atom_type_radius_bond
C 0.68
H 0.23
loop_
_atom_site_label
_atom_site_type_symbol
_atom_site_fract_x
_atom_site_fract_y
_atom_site_fract_z
C1 C 0.37556(7) 0.99099(13) 0.13002(8)
C2 C 0.39209(8) 1.09045(13) 0.06813(8)
H1 H 0.44330 1.08780 0.04090
C3 C 0.33580(8) 1.19495(13) 0.04432(8)
H2 H 0.34940 1.26320 0.00280
C4 C 0.26123(8) 1.19743(12) 0.08159(8)
H3 H 0.22180 1.26550 0.06400
C5 C 0.24221(7) 1.09950(12) 0.14618(7)
C6 C 0.16435(7) 1.10620(12) 0.18438(8)
H4 H 0.12680 1.17680 0.16630
C7 C 0.14255(7) 1.01452(12) 0.24568(8)
H5 H 0.08900 1.01960 0.26760
C8 C 0.19805(7) 0.90991(12) 0.27851(7)
C9 C 0.17486(7) 0.81385(12) 0.34676(7)
C10 C 0.09215(8) 0.78982(12) 0.37145(8)
C11 C 0.07834(8) 0.70391(13) 0.44191(8)
H6 H 0.02340 0.69040 0.45860
C12 C 0.14263(8) 0.63624(13) 0.48952(8)
H7 H 0.13150 0.58080 0.53890
C13 C 0.22133(8) 0.65105(12) 0.46399(8)
H8 H 0.26490 0.60250 0.49430
C14 C 0.23854(8) 0.73797(12) 0.39279(8)
C15 C 0.32108(8) 0.75126(13) 0.36673(8)
H9 H 0.36390 0.70430 0.39940
C16 C 0.34028(7) 0.82898(13) 0.29667(8)
H10 H 0.39550 0.83070 0.27930
C17 C 0.27900(7) 0.90869(12) 0.24808(7)
C18 C 0.30017(7) 0.99734(12) 0.17501(7)
C19 C 0.43624(7) 0.87615(13) 0.13851(8)
C20 C 0.41215(8) 0.74183(13) 0.11764(8)
H11 H 0.35620 0.72330 0.10050
C21 C 0.46898(8) 0.63470(13) 0.12155(8)
C22 C 0.55112(8) 0.66440(14) 0.14639(8)
H12 H 0.59020 0.59180 0.14980
C23 C 0.57691(8) 0.79751(14) 0.16624(8)
C24 C 0.51869(8) 0.90314(13) 0.16204(8)
H13 H 0.53550 0.99460 0.17540
C25 C 0.44168(9) 0.49022(14) 0.09934(10)
H14 H 0.41820 0.44810 0.15100
H15 H 0.48910 0.43620 0.08220
H16 H 0.39990 0.49240 0.05040
C26 C 0.66584(8) 0.82916(16) 0.19091(9)
H17 H 0.67190 0.85160 0.25380
H18 H 0.68370 0.90760 0.15630
H19 H 0.69980 0.74890 0.17870
C27 C 0.01638(7) 0.84246(12) 0.32241(8)
C28 C -0.03882(8) 0.92775(12) 0.36386(8)
H20 H -0.02740 0.95380 0.42350
C29 C -0.11057(8) 0.97536(12) 0.31913(8)
C30 C -0.12622(8) 0.93476(13) 0.23206(8)
H21 H -0.17350 0.96960 0.20010
C31 C -0.07421(8) 0.84419(13) 0.19052(8)
C32 C -0.00274(7) 0.80001(12) 0.23603(8)
H22 H 0.03370 0.73990 0.20790
C33 C -0.17026(9) 1.06744(14) 0.36392(10)
H23 H -0.17420 1.15590 0.33310
H24 H -0.15070 1.08240 0.42530
H25 H -0.22460 1.02380 0.36240
C34 C -0.09724(9) 0.79023(16) 0.09950(9)
H26 H -0.05470 0.72640 0.08140
H27 H -0.10180 0.86710 0.05780
H28 H -0.15020 0.74220 0.10010
loop_
_geom_bond_atom_site_label_1
_geom_bond_atom_site_label_2
_geom_bond_distance
_geom_bond_site_symmetry_1
_geom_bond_site_symmetry_2
C1 C2 1.386 1_555 1_555
C2 H1 0.950 1_555 1_555
C3 C2 1.402 1_555 1_555
H2 C3 0.950 1_555 1_555
C4 C3 1.366 1_555 1_555
H3 C4 0.950 1_555 1_555
C5 C4 1.414 1_555 1_555
C6 C5 1.422 1_555 1_555
H4 C6 0.950 1_555 1_555
C7 C6 1.351 1_555 1_555
H5 C7 0.950 1_555 1_555
C8 C7 1.432 1_555 1_555
C9 C8 1.460 1_555 1_555
C10 C9 1.435 1_555 1_555
C11 C10 1.386 1_555 1_555
H6 C11 0.951 1_555 1_555
C12 C11 1.403 1_555 1_555
H7 C12 0.949 1_555 1_555
C13 C12 1.365 1_555 1_555
H8 C13 0.950 1_555 1_555
C14 C9 1.424 1_555 1_555
C15 C14 1.426 1_555 1_555
H9 C15 0.950 1_555 1_555
C16 C15 1.356 1_555 1_555
H10 C16 0.950 1_555 1_555
C17 C8 1.418 1_555 1_555
C18 C1 1.437 1_555 1_555
C19 C1 1.492 1_555 1_555
C20 C19 1.396 1_555 1_555
H11 C20 0.950 1_555 1_555
C21 C20 1.392 1_555 1_555
C22 C21 1.399 1_555 1_555
H12 C22 0.950 1_555 1_555
C23 C22 1.389 1_555 1_555
C24 C19 1.394 1_555 1_555
H13 C24 0.950 1_555 1_555
C25 C21 1.507 1_555 1_555
H14 C25 0.981 1_555 1_555
H15 C25 0.980 1_555 1_555
H16 C25 0.980 1_555 1_555
C26 C23 1.506 1_555 1_555
H17 C26 0.980 1_555 1_555
H18 C26 0.980 1_555 1_555
H19 C26 0.980 1_555 1_555
C27 C10 1.496 1_555 1_555
C28 C27 1.397 1_555 1_555
H20 C28 0.950 1_555 1_555
C29 C28 1.397 1_555 1_555
C30 C29 1.391 1_555 1_555
H21 C30 0.950 1_555 1_555
C31 C30 1.395 1_555 1_555
C32 C27 1.395 1_555 1_555
H22 C32 0.950 1_555 1_555
C33 C29 1.510 1_555 1_555
H23 C33 0.980 1_555 1_555
H24 C33 0.980 1_555 1_555
H25 C33 0.980 1_555 1_555
C34 C31 1.508 1_555 1_555
H26 C34 0.980 1_555 1_555
H27 C34 0.980 1_555 1_555
H28 C34 0.980 1_555 1_555
C5 C18 1.423 1_555 1_555
C13 C14 1.413 1_555 1_555
C16 C17 1.436 1_555 1_555
C17 C18 1.462 1_555 1_555
C23 C24 1.396 1_555 1_555
C31 C32 1.388 1_555 1_555
#END
