
#######################################################################
#
#                 Cambridge Crystallographic Data Centre
#                                CCDC
#
#######################################################################
#
# If this CIF has been generated from an entry in the Cambridge
# Structural Database, then it will include bibliographic, chemical,
# crystal, experimental, refinement or atomic coordinate data resulting
# from the CCDC's data processing and validation procedures.
#
#######################################################################

data_CSD_CIF_WAZCOP
_audit_creation_date 1994-05-23
_audit_creation_method CSD-ConQuest-V1
_database_code_CSD WAZCOP
_database_code_depnum_ccdc_archive 'CCDC 1290925'
_database_code_depnum_ccdc_fiz 'CSD 57395'
_chemical_formula_sum 'C46 H42'
_chemical_formula_moiety
;
C46 H42
;
_journal_coden_Cambridge 48
_journal_volume 126
_journal_year 1993
_journal_page_first 2543
_journal_name_full 'Chem.Ber. '
loop_
_publ_author_name
"H.Schirmer"
"A.-D.Schluter"
"V.Enkelmann"
_chemical_name_systematic
;
8,17-Dihexylbenzo(1,2-k:4,5-k')difluoranthene
;
_cell_volume   1585.012
_exptl_crystal_colour 'orange'
_exptl_crystal_density_diffrn 1.247
_diffrn_ambient_temperature ?
_diffrn_special_details
;
The study was carried out at room temperature,in the range 283-303K

;
#These two values have been output from a single CSD field.
_refine_ls_R_factor_gt 0.038
_refine_ls_wR_factor_gt 0.038
_symmetry_cell_setting monoclinic
_symmetry_space_group_name_H-M 'P 21/n'
_symmetry_Int_Tables_number 14
loop_
_symmetry_equiv_pos_site_id
_symmetry_equiv_pos_as_xyz
1 x,y,z
2 1/2-x,1/2+y,1/2-z
3 -x,-y,-z
4 -1/2+x,-1/2-y,-1/2+z
_cell_length_a 21.190(1)
_cell_length_b 5.1311(4)
_cell_length_c 14.7738(7)
_cell_angle_alpha 90
_cell_angle_beta 99.344(4)
_cell_angle_gamma 90
_cell_formula_units_Z 2
loop_
_atom_type_symbol
_atom_type_radius_bond
C 0.68
loop_
_atom_site_label
_atom_site_type_symbol
_atom_site_fract_x
_atom_site_fract_y
_atom_site_fract_z
C1 C 0.7387(1) 0.4858(6) 0.4603(2)
C2 C 0.6937(1) 0.2899(6) 0.4672(2)
C3 C 0.6471(1) 0.2067(6) 0.3932(2)
C4 C 0.6478(1) 0.3176(6) 0.3088(2)
C5 C 0.6938(1) 0.5116(6) 0.2998(2)
C6 C 0.7373(1) 0.5959(6) 0.3723(2)
C7 C 0.7802(1) 0.5478(7) 0.5426(2)
C8 C 0.7763(1) 0.4163(7) 0.6220(2)
C9 C 0.7311(1) 0.2152(7) 0.6266(2)
C10 C 0.6892(1) 0.1531(6) 0.5490(2)
C11 C 0.6355(1) -0.0312(6) 0.5261(2)
C12 C 0.6086(1) 0.0066(6) 0.4308(2)
C13 C 0.5557(1) -0.1267(6) 0.3936(2)
C14 C 0.5259(1) -0.3126(6) 0.4457(2)
C15 C 0.5558(1) -0.3648(6) 0.5394(2)
C16 C 0.6110(1) -0.2128(6) 0.5765(2)
C17 C 0.4697(1) -0.4457(6) 0.4084(2)
C18 C 0.4364(1) -0.3847(6) 0.3126(2)
C19 C 0.4557(1) -0.5596(6) 0.2381(2)
C20 C 0.4199(1) -0.4992(6) 0.1430(2)
C21 C 0.4348(1) -0.6843(6) 0.0699(2)
C22 C 0.4000(2) -0.6259(6) -0.0265(2)
C23 C 0.4173(2) -0.8198(8) -0.0966(2)
C17B C 0.5303(1) -0.5543(6) 0.5916(2)
C15B C 0.4442(1) -0.6352(6) 0.4606(2)
C14B C 0.4741(1) -0.6874(6) 0.5543(2)
C18B C 0.5636(1) -0.6153(6) 0.6874(2)
C16B C 0.3890(1) -0.7872(6) 0.4235(2)
C13B C 0.4443(1) -0.8733(6) 0.6064(2)
C19B C 0.5443(1) -0.4404(6) 0.7619(2)
C11B C 0.3645(1) -0.9688(6) 0.4739(2)
C12B C 0.3914(1) -1.0066(6) 0.5692(2)
C20B C 0.5801(1) -0.5008(6) 0.8570(2)
C10B C 0.3108(1) -1.1531(6) 0.4510(2)
C3B C 0.3529(1) -1.2067(6) 0.6068(2)
C21B C 0.5652(1) -0.3157(6) 0.9301(2)
C2B C 0.3063(1) -1.2899(6) 0.5328(2)
C9B C 0.2689(1) -1.2152(7) 0.3734(2)
C4B C 0.3522(1) -1.3176(6) 0.6912(2)
C22B C 0.6000(2) -0.3741(6) 1.0265(2)
C1B C 0.2613(1) -1.4858(6) 0.5397(2)
C8B C 0.2237(1) -1.4163(7) 0.3780(2)
C5B C 0.3062(1) -1.5116(6) 0.7002(2)
C23B C 0.5827(2) -0.1802(8) 1.0966(2)
C6B C 0.2627(1) -1.5959(6) 0.6277(2)
C7B C 0.2198(1) -1.5478(7) 0.4574(2)
loop_
_geom_bond_atom_site_label_1
_geom_bond_atom_site_label_2
_geom_bond_distance
_geom_bond_site_symmetry_1
_geom_bond_site_symmetry_2
C1 C2 1.401 1_555 1_555
C2 C3 1.415 1_555 1_555
C3 C4 1.373 1_555 1_555
C4 C5 1.414 1_555 1_555
C5 C6 1.365 1_555 1_555
C6 C1 1.413 1_555 1_555
C7 C1 1.416 1_555 1_555
C8 C7 1.367 1_555 1_555
C9 C8 1.417 1_555 1_555
C10 C2 1.414 1_555 1_555
C11 C10 1.476 1_555 1_555
C12 C3 1.475 1_555 1_555
C13 C12 1.351 1_555 1_555
C14 C13 1.435 1_555 1_555
C15 C14 1.451 1_555 1_555
C16 C11 1.348 1_555 1_555
C17 C14 1.405 1_555 1_555
C18 C17 1.508 1_555 1_555
C19 C18 1.527 1_555 1_555
C20 C19 1.516 1_555 1_555
C21 C20 1.510 1_555 1_555
C22 C21 1.523 1_555 1_555
C23 C22 1.523 1_555 1_555
C17B C15 1.403 1_555 1_555
C15B C17 1.403 1_555 1_555
C14B C17B 1.405 1_555 1_555
C18B C17B 1.508 1_555 1_555
C16B C15B 1.438 1_555 1_555
C13B C14B 1.435 1_555 1_555
C19B C18B 1.527 1_555 1_555
C11B C16B 1.348 1_555 1_555
C12B C13B 1.351 1_555 1_555
C20B C19B 1.516 1_555 1_555
C10B C11B 1.476 1_555 1_555
C3B C12B 1.475 1_555 1_555
C21B C20B 1.510 1_555 1_555
C2B C10B 1.414 1_555 1_555
C9B C10B 1.369 1_555 1_555
C4B C3B 1.373 1_555 1_555
C22B C21B 1.523 1_555 1_555
C1B C2B 1.401 1_555 1_555
C8B C9B 1.417 1_555 1_555
C5B C4B 1.414 1_555 1_555
C23B C22B 1.523 1_555 1_555
C6B C1B 1.413 1_555 1_555
C7B C1B 1.416 1_555 1_555
C9 C10 1.369 1_555 1_555
C11 C12 1.444 1_555 1_555
C15 C16 1.438 1_555 1_555
C15B C14B 1.451 1_555 1_555
C11B C12B 1.444 1_555 1_555
C3B C2B 1.415 1_555 1_555
C8B C7B 1.367 1_555 1_555
C5B C6B 1.365 1_555 1_555
#END
