
#######################################################################
#
#                 Cambridge Crystallographic Data Centre
#                                CCDC
#
#######################################################################
#
# If this CIF has been generated from an entry in the Cambridge
# Structural Database, then it will include bibliographic, chemical,
# crystal, experimental, refinement or atomic coordinate data resulting
# from the CCDC's data processing and validation procedures.
#
#######################################################################

data_CSD_CIF_WEFCUG
_audit_creation_date 2006-07-12
_audit_creation_method CSD-ConQuest-V1
_database_code_CSD WEFCUG
_database_code_depnum_ccdc_archive 'CCDC 292095'
_chemical_formula_sum 'C24 H16'
_chemical_formula_moiety
;
C24 H16
;
_journal_coden_Cambridge 36
_journal_volume 691
_journal_year 2006
_journal_page_first 1389
_journal_name_full 'J.Organomet.Chem. '
loop_
_publ_author_name
"I.Cade"
"N.J.Long"
"A.J.P.White"
"D.J.Williams"
_chemical_name_systematic
;
9-(2-(4-Ethynylphenyl)ethenyl)anthracene
;
_cell_volume   3315.661
_exptl_crystal_colour 'yellow'
_exptl_crystal_density_diffrn 1.219
_exptl_special_details
;
fluorescent

;
_exptl_crystal_description 'needles'
_diffrn_ambient_temperature 293
#These two values have been output from a single CSD field.
_refine_ls_R_factor_gt 0.0616
_refine_ls_wR_factor_gt 0.0616
_symmetry_cell_setting monoclinic
_symmetry_space_group_name_H-M 'P 21/n'
_symmetry_Int_Tables_number 14
loop_
_symmetry_equiv_pos_site_id
_symmetry_equiv_pos_as_xyz
1 x,y,z
2 1/2-x,1/2+y,1/2-z
3 -x,-y,-z
4 -1/2+x,-1/2-y,-1/2+z
_cell_length_a 14.7618(14)
_cell_length_b 6.0866(5)
_cell_length_c 37.489(3)
_cell_angle_alpha 90
_cell_angle_beta 100.148(7)
_cell_angle_gamma 90
_cell_formula_units_Z 8
loop_
_atom_type_symbol
_atom_type_radius_bond
C 0.68
H 0.23
loop_
_atom_site_label
_atom_site_type_symbol
_atom_site_fract_x
_atom_site_fract_y
_atom_site_fract_z
C1 C 0.9618(2) 1.8097(7) 0.06728(10)
H1 H 1.00350 1.91820 0.06350
C2 C 0.9092(2) 1.6729(6) 0.07204(9)
C3 C 0.8441(2) 1.5054(5) 0.07692(9)
C4 C 0.8374(3) 1.3194(6) 0.05606(11)
H2 H 0.87630 1.30100 0.03930
C5 C 0.7738(2) 1.1598(6) 0.05959(11)
H3 H 0.77090 1.03500 0.04510
C6 C 0.7145(2) 1.1787(5) 0.08390(9)
C7 C 0.7218(2) 1.3651(6) 0.10509(9)
H4 H 0.68270 1.38270 0.12180
C8 C 0.7860(2) 1.5267(6) 0.10211(9)
H5 H 0.79020 1.64980 0.11700
C9 C 0.6486(2) 0.9983(6) 0.08572(10)
H6 H 0.64950 0.88470 0.06920
C10 C 0.5892(2) 0.9777(6) 0.10756(9)
H7 H 0.58460 1.09170 0.12370
C11 C 0.5290(2) 0.7844(5) 0.10826(9)
C12 C 0.4755(2) 0.6984(6) 0.07656(9)
C13 C 0.4655(2) 0.8058(8) 0.04221(11)
H8 H 0.49430 0.94040 0.04050
C14 C 0.4149(3) 0.7153(9) 0.01206(12)
H9 H 0.41010 0.78820 -0.01000
C15 C 0.3693(3) 0.5121(9) 0.01355(13)
H10 H 0.33670 0.44940 -0.00750
C16 C 0.3733(3) 0.4102(7) 0.04561(12)
H11 H 0.34110 0.27970 0.04660
C17 C 0.4258(2) 0.4967(6) 0.0782(1)
C18 C 0.4277(2) 0.3939(6) 0.11113(10)
H12 H 0.39570 0.26290 0.11200
C19 C 0.4766(2) 0.4825(6) 0.14311(10)
C20 C 0.4761(2) 0.3793(7) 0.17701(11)
H13 H 0.44380 0.24870 0.17780
C21 C 0.5216(3) 0.4667(8) 0.20814(12)
H14 H 0.51890 0.39930 0.23020
C22 C 0.5729(3) 0.6591(8) 0.20707(11)
H15 H 0.60470 0.71830 0.22850
C23 C 0.5769(2) 0.7602(7) 0.1754(1)
H16 H 0.61280 0.88600 0.17550
C24 C 0.5280(2) 0.6803(6) 0.14170(9)
C25 C -0.2609(3) 1.2208(7) 0.20176(11)
H17 H -0.30430 1.32300 0.20630
C26 C -0.2060(2) 1.0916(6) 0.19598(10)
C27 C -0.1375(2) 0.9380(6) 0.18926(9)
C28 C -0.1305(2) 0.7328(6) 0.20539(9)
H18 H -0.17170 0.69310 0.22040
C29 C -0.0638(2) 0.5873(6) 0.19960(9)
H19 H -0.06080 0.45010 0.21070
C30 C -0.0006(2) 0.6396(5) 0.17757(8)
C31 C -0.0070(2) 0.8467(5) 0.16163(9)
H20 H 0.03520 0.88800 0.14710
C32 C -0.0750(2) 0.9912(6) 0.16706(9)
H21 H -0.07900 1.12730 0.15560
C33 C 0.0655(2) 0.4726(5) 0.17058(8)
H22 H 0.07250 0.35210 0.18610
C34 C 0.1169(2) 0.4725(5) 0.14469(8)
H23 H 0.11650 0.59770 0.13050
C35 C 0.17400(19) 0.2861(5) 0.13734(8)
C36 C 0.2323(2) 0.1733(5) 0.16540(8)
C37 C 0.2529(2) 0.2541(6) 0.20180(8)
H24 H 0.22810 0.38720 0.20750
C38 C 0.3084(2) 0.1394(7) 0.22806(9)
H25 H 0.32170 0.19670 0.25140
C39 C 0.3458(2) -0.0637(7) 0.22071(11)
H26 H 0.38130 -0.14310 0.23930
C40 C 0.3304(2) -0.1433(6) 0.18676(10)
H27 H 0.35630 -0.27720 0.18210
C41 C 0.2750(2) -0.0274(5) 0.15762(9)
C42 C 0.2640(2) -0.1027(5) 0.12234(10)
H28 H 0.29140 -0.23460 0.11760
C43 C 0.2130(2) 0.0134(5) 0.09368(9)
C44 C 0.2041(2) -0.0586(6) 0.05699(10)
H29 H 0.23350 -0.18690 0.05190
C45 C 0.1540(3) 0.0557(7) 0.0297(1)
H30 H 0.14920 0.00600 0.00600
C46 C 0.1091(3) 0.2489(7) 0.03686(9)
H31 H 0.07530 0.32760 0.01780
C47 C 0.1143(2) 0.3227(6) 0.07111(8)
H32 H 0.08250 0.44940 0.07520
C48 C 0.16729(19) 0.2109(5) 0.10111(8)
loop_
_geom_bond_atom_site_label_1
_geom_bond_atom_site_label_2
_geom_bond_distance
_geom_bond_site_symmetry_1
_geom_bond_site_symmetry_2
C1 H1 0.931 1_555 1_555
C2 C1 1.173 1_555 1_555
C3 C2 1.435 1_555 1_555
C4 C3 1.370 1_555 1_555
H2 C4 0.930 1_555 1_555
C5 C4 1.373 1_555 1_555
H3 C5 0.930 1_555 1_555
C6 C5 1.375 1_555 1_555
C7 C6 1.378 1_555 1_555
H4 C7 0.930 1_555 1_555
C8 C3 1.389 1_555 1_555
H5 C8 0.930 1_555 1_555
C9 C6 1.476 1_555 1_555
H6 C9 0.930 1_555 1_555
C10 C9 1.307 1_555 1_555
H7 C10 0.931 1_555 1_555
C11 C10 1.477 1_555 1_555
C12 C11 1.407 1_555 1_555
C13 C12 1.428 1_555 1_555
H8 C13 0.930 1_555 1_555
C14 C13 1.357 1_555 1_555
H9 C14 0.930 1_555 1_555
C15 C14 1.414 1_555 1_555
H10 C15 0.931 1_555 1_555
C16 C15 1.345 1_555 1_555
H11 C16 0.930 1_555 1_555
C17 C12 1.437 1_555 1_555
C18 C17 1.380 1_555 1_555
H12 C18 0.930 1_555 1_555
C19 C18 1.394 1_555 1_555
C20 C19 1.419 1_555 1_555
H13 C20 0.930 1_555 1_555
C21 C20 1.349 1_555 1_555
H14 C21 0.930 1_555 1_555
C22 C21 1.399 1_555 1_555
H15 C22 0.929 1_555 1_555
C23 C22 1.348 1_555 1_555
H16 C23 0.931 1_555 1_555
C24 C11 1.407 1_555 1_555
C25 H17 0.930 1_555 1_555
C26 C25 1.176 1_555 1_555
C27 C26 1.432 1_555 1_555
C28 C27 1.384 1_555 1_555
H18 C28 0.930 1_555 1_555
C29 C28 1.370 1_555 1_555
H19 C29 0.931 1_555 1_555
C30 C29 1.388 1_555 1_555
C31 C30 1.391 1_555 1_555
H20 C31 0.931 1_555 1_555
C32 C27 1.385 1_555 1_555
H21 C32 0.930 1_555 1_555
C33 C30 1.464 1_555 1_555
H22 C33 0.931 1_555 1_555
C34 C33 1.333 1_555 1_555
H23 C34 0.929 1_555 1_555
C35 C34 1.468 1_555 1_555
C36 C35 1.414 1_555 1_555
C37 C36 1.432 1_555 1_555
H24 C37 0.929 1_555 1_555
C38 C37 1.358 1_555 1_555
H25 C38 0.930 1_555 1_555
C39 C38 1.401 1_555 1_555
H26 C39 0.930 1_555 1_555
C40 C39 1.343 1_555 1_555
H27 C40 0.930 1_555 1_555
C41 C36 1.428 1_555 1_555
C42 C41 1.382 1_555 1_555
H28 C42 0.930 1_555 1_555
C43 C42 1.391 1_555 1_555
C44 C43 1.427 1_555 1_555
H29 C44 0.929 1_555 1_555
C45 C44 1.346 1_555 1_555
H30 C45 0.929 1_555 1_555
C46 C45 1.399 1_555 1_555
H31 C46 0.929 1_555 1_555
C47 C46 1.350 1_555 1_555
H32 C47 0.929 1_555 1_555
C48 C35 1.420 1_555 1_555
C7 C8 1.384 1_555 1_555
C16 C17 1.427 1_555 1_555
C19 C24 1.429 1_555 1_555
C23 C24 1.426 1_555 1_555
C31 C32 1.376 1_555 1_555
C40 C41 1.430 1_555 1_555
C43 C48 1.430 1_555 1_555
C47 C48 1.425 1_555 1_555
#END
