
#######################################################################
#
#                 Cambridge Crystallographic Data Centre
#                                CCDC
#
#######################################################################
#
# If this CIF has been generated from an entry in the Cambridge
# Structural Database, then it will include bibliographic, chemical,
# crystal, experimental, refinement or atomic coordinate data resulting
# from the CCDC's data processing and validation procedures.
#
#######################################################################

data_CSD_CIF_WEFSAD
_audit_creation_date 2012-11-29
_audit_creation_method CSD-ConQuest-V1
_database_code_CSD WEFSAD
_database_code_depnum_ccdc_archive 'CCDC 871463'
_chemical_formula_sum 'C120 H136'
_chemical_formula_moiety
;
C120 H136
;
_journal_coden_Cambridge 4
_journal_volume 134
_journal_year 2012
_journal_page_first 12442
_journal_name_full 'J.Am.Chem.Soc. '
loop_
_publ_author_name
"S.Hitosugi"
"T.Yamasaki"
"H.Isobe"
_chemical_name_systematic
;
1^6^,1^12^,2^6^,2^12^,3^6^,3^12^,4^6^,4^12^-octahexyl-1,2,3,4-(3,9)-tetrachrys
enacyclotetraphane
;
_chemical_name_common
;
[4]cyclo-3,9-chrysenylene
;
_cell_volume  21038.935
_exptl_crystal_colour 'colorless'
_exptl_crystal_density_diffrn 0.997
_exptl_crystal_description 'plate'
_diffrn_ambient_temperature 100
#These two values have been output from a single CSD field.
_refine_ls_R_factor_gt 0.1285
_refine_ls_wR_factor_gt 0.1285
_symmetry_cell_setting monoclinic
_symmetry_space_group_name_H-M 'C 2/c'
_symmetry_Int_Tables_number 15
loop_
_symmetry_equiv_pos_site_id
_symmetry_equiv_pos_as_xyz
1 x,y,z
2 -x,y,1/2-z
3 1/2+x,1/2+y,z
4 1/2-x,1/2+y,1/2-z
5 -x,-y,-z
6 x,-y,-1/2+z
7 -1/2-x,-1/2-y,-z
8 -1/2+x,-1/2-y,-1/2+z
_cell_length_a 33.762(4)
_cell_length_b 29.058(4)
_cell_length_c 23.261(3)
_cell_angle_alpha 90
_cell_angle_beta 112.789(2)
_cell_angle_gamma 90
_cell_formula_units_Z 8
loop_
_atom_type_symbol
_atom_type_radius_bond
C 0.71
H 0.23
loop_
_atom_site_label
_atom_site_type_symbol
_atom_site_fract_x
_atom_site_fract_y
_atom_site_fract_z
C1 C 0.13004(14) 0.48789(16) 0.2547(2)
C2 C 0.16713(15) 0.50897(16) 0.2979(2)
H1 H 0.18570 0.52480 0.28250
C3 C 0.11987(15) 0.48802(15) 0.1882(2)
C4 C 0.19458(15) 0.34755(16) 0.0255(2)
C5 C 0.14887(17) 0.20911(18) 0.5191(2)
C6 C 0.21480(15) 0.26657(16) 0.0375(2)
C7 C 0.12137(16) 0.28674(16) 0.4947(2)
C8 C 0.17783(15) 0.50779(16) 0.3613(2)
C9 C 0.08007(16) 0.26941(17) 0.4611(2)
C10 C 0.19756(17) 0.27151(18) 0.5699(2)
H2 H 0.20110 0.30330 0.58040
C11 C 0.05931(15) 0.45513(16) 0.2332(2)
H3 H 0.03970 0.44150 0.24840
C12 C 0.10194(15) 0.46534(16) 0.2767(2)
C13 C 0.15359(15) 0.47763(16) 0.3840(2)
C14 C 0.07665(15) 0.47837(16) 0.1464(2)
C15 C 0.17344(17) 0.25361(17) -0.0017(2)
C16 C 0.25408(16) 0.45145(17) 0.1098(2)
H4 H 0.28250 0.46340 0.12650
C17 C 0.16549(16) 0.46787(16) 0.4492(2)
H5 H 0.18730 0.48560 0.47940
C18 C 0.14226(16) 0.28820(18) -0.0332(2)
C19 C 0.22882(16) 0.08164(17) 0.3552(2)
C20 C 0.04535(15) 0.46413(16) 0.1702(2)
C21 C 0.17828(15) 0.46241(16) 0.0848(2)
C22 C 0.11680(14) 0.45504(15) 0.3416(2)
C23 C 0.24292(17) 0.23263(17) 0.0746(2)
H6 H 0.27160 0.24110 0.09990
C24 C 0.24673(15) 0.40752(18) 0.0825(2)
C25 C 0.13062(16) 0.33320(17) 0.4847(2)
H7 H 0.15860 0.34500 0.50730
C26 C 0.15681(16) 0.25650(17) 0.5299(2)
C27 C 0.10035(16) 0.47747(16) 0.0606(2)
H8 H 0.09370 0.47540 0.01710
C28 C 0.22772(16) 0.19638(17) 0.5730(2)
C29 C 0.23254(15) 0.24336(17) 0.5949(2)
C30 C 0.15207(16) 0.33318(17) -0.0176(2)
H9 H 0.13050 0.35590 -0.03540
C31 C 0.20382(16) 0.39350(17) 0.0487(2)
C32 C 0.06766(16) 0.47786(16) 0.0819(2)
H10 H 0.03870 0.47780 0.05280
C33 C 0.14580(15) 0.43343(17) 0.4683(2)
H11 H 0.15400 0.42800 0.51160
C34 C 0.14318(15) 0.48012(16) 0.1019(2)
C35 C 0.15175(16) 0.48913(16) 0.1649(2)
H12 H 0.18030 0.49620 0.19230
C36 C 0.11362(14) 0.40580(16) 0.4252(2)
C37 C 0.28082(17) 0.37475(17) 0.0923(2)
C38 C 0.26960(17) 0.33022(17) 0.0766(2)
H13 H 0.29200 0.30810 0.08690
C39 C 0.23624(19) 0.09393(17) 0.2555(3)
C40 C 0.22125(17) 0.47716(17) 0.1127(2)
H14 H 0.22750 0.50580 0.13420
C41 C 0.16159(18) 0.20555(18) -0.0048(2)
H15 H 0.13430 0.19570 -0.03360
C42 C 0.09976(16) 0.36184(17) 0.4426(2)
C43 C 0.09775(15) 0.41876(17) 0.3625(2)
H16 H 0.07370 0.40290 0.33340
C44 C 0.23046(18) 0.18788(17) 0.0756(2)
C45 C 0.10603(16) 0.19220(17) 0.4895(2)
H17 H 0.10130 0.15990 0.48870
C46 C 0.18625(16) 0.17895(17) 0.5358(2)
C47 C 0.32454(18) 0.14827(19) 0.2169(2)
H18 H 0.35490 0.15150 0.23450
C48 C 0.05770(16) 0.34340(19) 0.4128(2)
H19 H 0.03560 0.36260 0.38560
C49 C 0.22708(16) 0.31464(16) 0.0462(2)
C50 C 0.16992(16) 0.42275(17) 0.0499(2)
H20 H 0.14090 0.41450 0.02610
C51 C 0.07220(16) 0.22016(18) 0.4627(2)
C52 C 0.26445(18) 0.1677(2) 0.5826(2)
H21 H 0.29190 0.17590 0.61270
C53 C 0.25519(17) 0.09545(17) 0.3204(2)
C54 C 0.30350(17) 0.12851(16) 0.2531(2)
C55 C 0.25743(17) 0.15798(17) 0.1295(2)
C56 C 0.25950(17) 0.11633(16) 0.2213(2)
C57 C 0.18869(18) 0.05904(17) 0.3225(3)
C58 C 0.30200(17) 0.16283(17) 0.1569(2)
H22 H 0.31690 0.17630 0.13380
C59 C 0.17658(18) 0.05848(18) 0.4185(3)
H23 H 0.15960 0.04880 0.44060
C60 C 0.04798(17) 0.30010(19) 0.4216(2)
H24 H 0.01930 0.28950 0.40130
C61 C 0.32287(17) 0.12448(18) 0.3193(3)
C62 C 0.23691(17) 0.13221(17) 0.1600(2)
H25 H 0.20730 0.12520 0.13930
C63 C 0.18320(17) 0.13805(18) 0.5029(3)
H26 H 0.15560 0.12580 0.47920
C64 C 0.29884(18) 0.11048(18) 0.3513(3)
H27 H 0.31130 0.11060 0.39560
C65 C 0.21350(18) 0.08587(18) 0.4489(3)
C66 C 0.25932(19) 0.1281(2) 0.5474(3)
H28 H 0.28370 0.10960 0.55320
C67 C 0.24022(17) 0.09389(18) 0.4174(2)
H29 H 0.26720 0.10820 0.43890
C68 C 0.18995(17) 0.17419(17) 0.0340(2)
H30 H 0.18180 0.14280 0.03240
C69 C 0.17292(19) 0.05396(18) 0.2567(3)
C70 C 0.21931(17) 0.11465(18) 0.5037(3)
C71 C 0.16531(19) 0.04597(18) 0.3584(3)
H31 H 0.14040 0.02750 0.33950
C72 C 0.19676(19) 0.07249(19) 0.2256(3)
H32 H 0.18550 0.07050 0.18140
C73 C 0.21665(16) 0.53341(18) 0.4046(2)
H33 H 0.21330 0.53890 0.44450
H34 H 0.21790 0.56380 0.38600
C74 C -0.00004(15) 0.45495(16) 0.1288(2)
H35 H -0.01340 0.43700 0.15270
H36 H -0.00020 0.43540 0.09390
C75 C 0.02657(17) 0.2002(2) 0.4349(3)
H37 H 0.01090 0.21410 0.39330
H38 H 0.02830 0.16670 0.42910
C76 C 0.32728(16) 0.3888(2) 0.1221(3)
H39 H 0.34400 0.36740 0.10720
H40 H 0.32990 0.41980 0.10620
C77 C 0.36971(17) 0.1383(2) 0.3554(3)
H41 H 0.37380 0.14620 0.39870
H42 H 0.37620 0.16610 0.33600
C78 C 0.09853(17) 0.2748(2) -0.0822(3)
H43 H 0.08600 0.24990 -0.06560
H44 H 0.07900 0.30170 -0.09120
C79 C -0.02860(16) 0.49802(18) 0.1010(2)
H45 H -0.01610 0.51540 0.07540
H46 H -0.05760 0.48760 0.07290
C80 C -0.03308(17) 0.52984(17) 0.1491(2)
H47 H -0.00540 0.54560 0.17140
H48 H -0.04000 0.51160 0.17990
C81 C 0.10192(19) 0.2587(2) -0.1424(3)
H49 H 0.12420 0.23450 -0.13280
H50 H 0.11080 0.28480 -0.16200
C82 C 0.0579(2) 0.2392(2) -0.1891(3)
H51 H 0.04930 0.21320 -0.16910
H52 H 0.03580 0.26350 -0.19790
C83 C 0.1306(2) 0.0308(3) 0.2207(3)
H53 H 0.12730 0.00350 0.24390
H54 H 0.12990 0.02030 0.17980
C84 C 0.0019(2) 0.2089(3) 0.4752(3)
H55 H -0.00150 0.24260 0.47830
H56 H 0.01890 0.19740 0.51770
C85 C -0.0684(2) 0.56603(19) 0.1197(3)
H57 H -0.06200 0.58340 0.08770
H58 H -0.09620 0.55010 0.09840
C86 C 0.0592(3) 0.2232(2) -0.2491(3)
H59 H 0.03280 0.20520 -0.27170
H60 H 0.08400 0.20230 -0.23990
C87 C 0.0626(3) 0.2616(3) -0.2923(3)
H61 H 0.04040 0.28530 -0.29720
H62 H 0.09110 0.27650 -0.27350
C88 C 0.3471(3) 0.3903(3) 0.1876(4)
H63 H 0.34260 0.36050 0.20480
H64 H 0.33320 0.41460 0.20330
C89 C 0.3974(3) 0.4005(4) 0.2124(5)
H65 H 0.41090 0.37610 0.19640
H66 H 0.40150 0.43000 0.19440
C90 C 0.4195(3) 0.4028(4) 0.2787(6)
H67 H 0.40980 0.37650 0.29700
H68 H 0.41000 0.43120 0.29320
C91 C 0.0565(4) 0.2420(3) -0.3551(4)
H69 H 0.05850 0.26680 -0.38240
H70 H 0.02820 0.22740 -0.37360
H71 H 0.07880 0.21910 -0.35010
C92 C 0.4697(4) 0.4026(4) 0.3067(6)
H72 H 0.47870 0.37590 0.28800
H73 H 0.47890 0.43050 0.29080
C93 C -0.0728(5) 0.5988(4) 0.1652(5)
H74 H -0.06470 0.62810 0.15080
H75 H -0.10450 0.60050 0.15130
C94 C -0.1187(2) 0.1852(3) 0.3723(4)
H76 H -0.11650 0.15140 0.37770
H77 H -0.13060 0.19740 0.40200
C95 C -0.0420(2) 0.1869(3) 0.4522(3)
H78 H -0.05420 0.19170 0.48420
H79 H -0.03830 0.15330 0.44890
C96 C -0.0746(2) 0.2040(3) 0.3896(4)
H80 H -0.07610 0.23800 0.39100
H81 H -0.06430 0.19570 0.35660
C97 C -0.1495(2) 0.1955(3) 0.3079(4)
H82 H -0.17780 0.18300 0.30190
H83 H -0.13940 0.18140 0.27790
H84 H -0.15170 0.22890 0.30160
C98 C 0.0505(3) 0.0450(6) 0.1819(6)
H85 H 0.04780 0.01840 0.20660
H86 H 0.04550 0.03420 0.13920
C99 C -0.0631(6) 0.6054(7) 0.2134(5)
H87 H -0.07090 0.63690 0.21970
H88 H -0.03190 0.60160 0.23400
H89 H -0.07740 0.58370 0.23140
C100 C 0.40118(19) 0.0999(2) 0.3566(3)
H90 H 0.39620 0.07330 0.37950
H91 H 0.39470 0.08990 0.31320
C101 C 0.4472(2) 0.1128(2) 0.3856(3)
H92 H 0.45190 0.14020 0.36370
H93 H 0.46440 0.08730 0.37880
C102 C 0.0928(2) 0.0649(4) 0.2105(5)
H94 H 0.09600 0.07790 0.25140
H95 H 0.09510 0.09060 0.18410
C103 C 0.27520(16) 0.2626(2) 0.6351(3)
H96 H 0.29150 0.23910 0.66610
H97 H 0.27090 0.28950 0.65820
C104 C 0.4277(8) 0.2486(8) 0.7169(9)
H98 H 0.44490 0.25700 0.69240
H99 H 0.43300 0.27240 0.74950
C105 C 0.3772(3) 0.2513(9) 0.6707(5)
H100 H 0.37490 0.23020 0.63620
H101 H 0.36230 0.23560 0.69430
C106 C 0.4454(5) 0.2014(8) 0.7505(7)
H102 H 0.47540 0.20520 0.77900
H103 H 0.44340 0.17800 0.71920
H104 H 0.42820 0.19180 0.77410
C107 C 0.4641(3) 0.1231(3) 0.4546(3)
H105 H 0.45050 0.15220 0.45960
H106 H 0.45330 0.09860 0.47430
C108 C 0.5077(4) 0.1273(4) 0.4892(5)
H107 H 0.52260 0.09860 0.48620
H108 H 0.51290 0.13260 0.53350
C109 C 0.25923(19) 0.5082(2) 0.4182(3)
H109 H 0.25830 0.47890 0.43940
H110 H 0.26060 0.50000 0.37760
C110 C 0.2996(3) 0.5317(3) 0.4558(4)
H111 H 0.30250 0.53130 0.49980
H112 H 0.29700 0.56420 0.44240
C111 C 0.4932(6) 0.4010(8) 0.3684(12)
H113 H 0.52380 0.40000 0.37580
H114 H 0.48560 0.37340 0.38610
H115 H 0.48740 0.42840 0.38830
C112 C 0.4186(6) 0.5352(15) 0.4893(15)
H116 H 0.43900 0.55440 0.52200
H117 H 0.41570 0.54680 0.44830
H118 H 0.42910 0.50340 0.49420
C113 C 0.3399(3) 0.5130(4) 0.4536(5)
H119 H 0.33740 0.51430 0.40980
H120 H 0.34200 0.48020 0.46560
C114 C 0.3814(4) 0.5363(6) 0.4938(7)
H121 H 0.37420 0.56930 0.49270
H122 H 0.38710 0.52580 0.53670
C115 C 0.3021(2) 0.2777(3) 0.5972(3)
H123 H 0.30290 0.25220 0.56950
H124 H 0.28790 0.30430 0.57060
C116 C 0.3473(3) 0.2908(6) 0.6384(4)
H125 H 0.34610 0.31220 0.67080
H126 H 0.36000 0.30780 0.61280
C117 C 0.5237(3) 0.1645(4) 0.4661(5)
H127 H 0.53990 0.15290 0.44220
H128 H 0.54260 0.18320 0.50100
H129 H 0.49970 0.18350 0.43900
C118 C 0.0130(4) 0.0880(13) 0.1791(12)
H130 H 0.01070 0.09280 0.21990
H131 H 0.01850 0.11750 0.16240
C119 C -0.030(3) 0.0589(12) 0.127(2)
H132 H -0.03240 0.02610 0.13690
H133 H -0.03660 0.06490 0.08270
C120 C -0.0470(6) 0.0959(10) 0.1632(10)
H134 H -0.07800 0.09180 0.15110
H135 H -0.04130 0.12700 0.15220
H136 H -0.03240 0.09140 0.20830
loop_
_geom_bond_atom_site_label_1
_geom_bond_atom_site_label_2
_geom_bond_distance
_geom_bond_site_symmetry_1
_geom_bond_site_symmetry_2
C1 C2 1.407 1_555 1_555
C2 H1 0.952 1_555 1_555
C3 C1 1.449 1_555 1_555
C4 C30 1.458 1_555 1_555
C5 C26 1.407 1_555 1_555
C6 C15 1.392 1_555 1_555
C7 C9 1.402 1_555 1_555
C8 C2 1.376 1_555 1_555
C9 C51 1.459 1_555 1_555
C10 H2 0.951 1_555 1_555
C11 H3 0.950 1_555 1_555
C12 C1 1.403 1_555 1_555
C13 C8 1.432 1_555 1_555
C14 C3 1.433 1_555 1_555
C15 C18 1.434 1_555 1_555
C16 H4 0.950 1_555 1_555
C17 C13 1.439 1_555 1_555
H5 C17 0.949 1_555 1_555
C18 C30 1.363 1_555 1_555
C19 C53 1.472 1_555 1_555
C20 C11 1.379 1_555 1_555
C21 C34 1.481 1_555 1_555
C22 C12 1.426 1_555 1_555
C23 C6 1.409 1_555 1_555
H6 C23 0.950 1_555 1_555
C24 C16 1.404 1_555 1_555
C25 C7 1.425 1_555 1_555
H7 C25 0.950 1_555 1_555
C26 C7 1.454 1_555 1_555
C27 H8 0.950 1_555 1_555
C28 C29 1.444 1_555 1_555
C29 C10 1.367 1_555 1_555
C30 H9 0.951 1_555 1_555
C31 C4 1.429 1_555 1_555
C32 C14 1.411 1_555 1_555
H10 C32 0.949 1_555 1_555
C33 C17 1.367 1_555 1_555
H11 C33 0.949 1_555 1_555
C34 C27 1.394 1_555 1_555
C35 C3 1.380 1_555 1_555
H12 C35 0.950 1_555 1_555
C36 C33 1.409 1_555 1_555
C37 C24 1.442 1_555 1_555
C38 C37 1.358 1_555 1_555
H13 C38 0.950 1_555 1_555
C39 C53 1.394 1_555 1_555
C40 C16 1.360 1_555 1_555
H14 C40 0.952 1_555 1_555
C41 C15 1.447 1_555 1_555
H15 C41 0.949 1_555 1_555
C42 C25 1.395 1_555 1_555
C43 C22 1.415 1_555 1_555
H16 C43 0.951 1_555 1_555
C44 C23 1.370 1_555 1_555
C45 C5 1.427 1_555 1_555
H17 C45 0.951 1_555 1_555
C46 C5 1.460 1_555 1_555
C47 H18 0.950 1_555 1_555
C48 C42 1.422 1_555 1_555
H19 C48 0.950 1_555 1_555
C49 C4 1.393 1_555 1_555
C50 C21 1.375 1_555 1_555
H20 C50 0.951 1_555 1_555
C51 C45 1.342 1_555 1_555
C52 C28 1.438 1_555 1_555
H21 C52 0.950 1_555 1_555
C53 C64 1.435 1_555 1_555
C54 C47 1.417 1_555 1_555
C55 C44 1.507 1_555 1_555
C56 C39 1.469 1_555 1_555
C57 C19 1.431 1_555 1_555
C58 C47 1.372 1_555 1_555
H22 C58 0.951 1_555 1_555
C59 H23 0.949 1_555 1_555
C60 C9 1.429 1_555 1_555
H24 C60 0.949 1_555 1_555
C61 C54 1.426 1_555 1_555
C62 C55 1.387 1_555 1_555
H25 C62 0.949 1_555 1_555
C63 C46 1.396 1_555 1_555
H26 C63 0.949 1_555 1_555
C64 C61 1.359 1_555 1_555
H27 C64 0.950 1_555 1_555
C65 C59 1.416 1_555 1_555
C66 C52 1.384 1_555 1_555
H28 C66 0.948 1_555 1_555
C67 C19 1.392 1_555 1_555
H29 C67 0.949 1_555 1_555
C68 C41 1.376 1_555 1_555
H30 C68 0.949 1_555 1_555
C69 C57 1.420 1_555 1_555
C70 C63 1.390 1_555 1_555
C71 C57 1.405 1_555 1_555
H31 C71 0.950 1_555 1_555
C72 C39 1.389 1_555 1_555
H32 C72 0.950 1_555 1_555
C73 C8 1.505 1_555 1_555
H33 C73 0.990 1_555 1_555
H34 C73 0.991 1_555 1_555
C74 C20 1.484 1_555 1_555
H35 C74 0.989 1_555 1_555
H36 C74 0.989 1_555 1_555
C75 C51 1.535 1_555 1_555
H37 C75 0.991 1_555 1_555
H38 C75 0.988 1_555 1_555
C76 C37 1.505 1_555 1_555
H39 C76 0.988 1_555 1_555
H40 C76 0.991 1_555 1_555
C77 C61 1.529 1_555 1_555
H41 C77 0.989 1_555 1_555
H42 C77 0.990 1_555 1_555
C78 C18 1.525 1_555 1_555
H43 C78 0.989 1_555 1_555
H44 C78 0.991 1_555 1_555
C79 C74 1.559 1_555 1_555
H45 C79 0.991 1_555 1_555
H46 C79 0.991 1_555 1_555
C80 C79 1.504 1_555 1_555
H47 C80 0.988 1_555 1_555
H48 C80 0.989 1_555 1_555
C81 C78 1.522 1_555 1_555
H49 C81 0.990 1_555 1_555
H50 C81 0.989 1_555 1_555
C82 C81 1.568 1_555 1_555
H51 C82 0.988 1_555 1_555
H52 C82 0.989 1_555 1_555
C83 C69 1.506 1_555 1_555
H53 C83 0.990 1_555 1_555
H54 C83 0.991 1_555 1_555
C84 C75 1.497 1_555 1_555
H55 C84 0.992 1_555 1_555
H56 C84 0.989 1_555 1_555
C85 C80 1.537 1_555 1_555
H57 C85 0.990 1_555 1_555
H58 C85 0.990 1_555 1_555
C86 C82 1.488 1_555 1_555
H59 C86 0.991 1_555 1_555
H60 C86 0.988 1_555 1_555
C87 C86 1.535 1_555 1_555
H61 C87 0.991 1_555 1_555
H62 C87 0.989 1_555 1_555
C88 C76 1.408 1_555 1_555
H63 C88 0.990 1_555 1_555
H64 C88 0.992 1_555 1_555
C89 C88 1.596 1_555 1_555
H65 C89 0.990 1_555 1_555
H66 C89 0.987 1_555 1_555
C90 C89 1.431 1_555 1_555
H67 C90 0.990 1_555 1_555
H68 C90 0.991 1_555 1_555
C91 C87 1.506 1_555 1_555
H69 C91 0.980 1_555 1_555
H70 C91 0.980 1_555 1_555
H71 C91 0.977 1_555 1_555
C92 C90 1.563 1_555 1_555
H72 C92 0.993 1_555 1_555
H73 C92 0.990 1_555 1_555
C93 C85 1.473 1_555 1_555
H74 C93 0.991 1_555 1_555
H75 C93 0.992 1_555 1_555
C94 H76 0.989 1_555 1_555
H77 C94 0.990 1_555 1_555
C95 C84 1.509 1_555 1_555
H78 C95 0.990 1_555 1_555
H79 C95 0.991 1_555 1_555
C96 C94 1.488 1_555 1_555
H80 C96 0.990 1_555 1_555
H81 C96 0.987 1_555 1_555
C97 C94 1.486 1_555 1_555
H82 C97 0.980 1_555 1_555
H83 C97 0.977 1_555 1_555
H84 C97 0.980 1_555 1_555
C98 H85 0.988 1_555 1_555
H86 C98 0.992 1_555 1_555
C99 C93 1.057 1_555 1_555
H87 C99 0.979 1_555 1_555
H88 C99 0.980 1_555 1_555
H89 C99 0.981 1_555 1_555
C100 C77 1.534 1_555 1_555
H90 C100 0.989 1_555 1_555
H91 C100 0.990 1_555 1_555
C101 C100 1.482 1_555 1_555
H92 C101 0.991 1_555 1_555
H93 C101 0.991 1_555 1_555
C102 C83 1.560 1_555 1_555
H94 C102 0.990 1_555 1_555
H95 C102 0.989 1_555 1_555
C103 C29 1.489 1_555 1_555
H96 C103 0.991 1_555 1_555
H97 C103 0.991 1_555 1_555
C104 H98 0.989 1_555 1_555
H99 C104 0.990 1_555 1_555
C105 C104 1.627 1_555 1_555
H100 C105 0.989 1_555 1_555
H101 C105 0.988 1_555 1_555
C106 C104 1.577 1_555 1_555
H102 C106 0.978 1_555 1_555
H103 C106 0.979 1_555 1_555
H104 C106 0.982 1_555 1_555
C107 C101 1.511 1_555 1_555
H105 C107 0.990 1_555 1_555
H106 C107 0.990 1_555 1_555
C108 C107 1.383 1_555 1_555
H107 C108 0.990 1_555 1_555
H108 C108 0.988 1_555 1_555
C109 C73 1.533 1_555 1_555
H109 C109 0.990 1_555 1_555
H110 C109 0.992 1_555 1_555
C110 C109 1.472 1_555 1_555
H111 C110 0.990 1_555 1_555
H112 C110 0.988 1_555 1_555
C111 C92 1.345 1_555 1_555
H113 C111 0.980 1_555 1_555
H114 C111 0.980 1_555 1_555
H115 C111 0.978 1_555 1_555
C112 H116 0.979 1_555 1_555
H117 C112 0.980 1_555 1_555
H118 C112 0.980 1_555 1_555
C113 C110 1.484 1_555 1_555
H119 C113 0.990 1_555 1_555
H120 C113 0.988 1_555 1_555
C114 C112 1.300 1_555 1_555
H121 C114 0.987 1_555 1_555
H122 C114 0.989 1_555 1_555
C115 C103 1.554 1_555 1_555
H123 C115 0.989 1_555 1_555
H124 C115 0.990 1_555 1_555
C116 C105 1.521 1_555 1_555
H125 C116 0.990 1_555 1_555
H126 C116 0.990 1_555 1_555
C117 C108 1.405 1_555 1_555
H127 C117 0.978 1_555 1_555
H128 C117 0.980 1_555 1_555
H129 C117 0.981 1_555 1_555
C118 C98 1.762 1_555 1_555
H130 C118 0.992 1_555 1_555
H131 C118 0.988 1_555 1_555
C119 C118 1.711 1_555 1_555
H132 C119 0.991 1_555 1_555
H133 C119 0.982 1_555 1_555
C120 C119 1.603 1_555 1_555
H134 C120 0.980 1_555 1_555
H135 C120 0.978 1_555 1_555
H136 C120 0.980 1_555 1_555
C6 C49 1.449 1_555 1_555
C10 C26 1.399 1_555 1_555
C11 C12 1.434 1_555 1_555
C13 C22 1.413 1_555 1_555
C14 C20 1.431 1_555 1_555
C21 C40 1.407 1_555 1_555
C24 C31 1.414 1_555 1_555
C27 C32 1.374 1_555 1_555
C28 C46 1.424 1_555 1_555
C31 C50 1.435 1_555 1_555
C34 C35 1.404 1_555 1_555
C36 C42 1.470 1_555 1_555
C36 C43 1.397 1_555 1_555
C38 C49 1.407 1_555 1_555
C44 C68 1.393 1_555 1_555
C48 C60 1.336 1_555 1_555
C54 C56 1.424 1_555 1_555
C55 C58 1.396 1_555 1_555
C56 C62 1.409 1_555 1_555
C59 C71 1.349 1_555 1_555
C65 C67 1.385 1_555 1_555
C65 C70 1.473 1_555 1_555
C66 C70 1.395 1_555 1_555
C69 C72 1.383 1_555 1_555
C95 C96 1.529 1_555 1_555
C98 C102 1.442 1_555 1_555
C113 C114 1.510 1_555 1_555
C115 C116 1.503 1_555 1_555
#END
