
#######################################################################
#
#                 Cambridge Crystallographic Data Centre
#                                CCDC
#
#######################################################################
#
# If this CIF has been generated from an entry in the Cambridge
# Structural Database, then it will include bibliographic, chemical,
# crystal, experimental, refinement or atomic coordinate data resulting
# from the CCDC's data processing and validation procedures.
#
#######################################################################

data_CSD_CIF_WEKMUV
_audit_creation_date 2006-11-14
_audit_creation_method CSD-ConQuest-V1
_database_code_CSD WEKMUV
_database_code_depnum_ccdc_archive 'CCDC 601752'
_chemical_formula_sum 'C29 H18'
_chemical_formula_moiety
;
C29 H18
;
_journal_coden_Cambridge 579
_journal_volume 25
_journal_year 2006
_journal_page_first 3824
_journal_name_full 'Organometallics '
loop_
_publ_author_name
"K.Schroder"
"D.Haase"
"W.Saak"
"A.Lutzen"
"R.Beckhaus"
"S.Wichmann"
"J.Schellenberg"
_chemical_name_systematic
;
17H-Tetrabenzo(a,c,g,i)fluorene
;
_cell_volume   1800.510
_exptl_crystal_colour 'yellow'
_exptl_crystal_density_diffrn 1.352
_exptl_crystal_description 'needle'
_diffrn_ambient_temperature 153
#These two values have been output from a single CSD field.
_refine_ls_R_factor_gt 0.0326
_refine_ls_wR_factor_gt 0.0326
_symmetry_cell_setting monoclinic
_symmetry_space_group_name_H-M 'P 2/c'
_symmetry_Int_Tables_number 13
loop_
_symmetry_equiv_pos_site_id
_symmetry_equiv_pos_as_xyz
1 x,y,z
2 -x,y,1/2-z
3 -x,-y,-z
4 x,-y,-1/2+z
_cell_length_a 18.4562(14)
_cell_length_b 5.0962(2)
_cell_length_c 19.1459(16)
_cell_angle_alpha 90
_cell_angle_beta 91.022(9)
_cell_angle_gamma 90
_cell_formula_units_Z 4
loop_
_atom_type_symbol
_atom_type_radius_bond
C 0.68
H 0.23
loop_
_atom_site_label
_atom_site_type_symbol
_atom_site_fract_x
_atom_site_fract_y
_atom_site_fract_z
C1 C 0.36115(6) 0.7483(3) 0.47787(6)
H1 H 0.3930(7) 0.626(3) 0.4496(7)
H2 H 0.3932(7) 0.843(3) 0.5121(7)
C2 C 0.30029(6) 0.6114(2) 0.51408(6)
C3 C 0.23448(6) 0.7073(2) 0.49152(6)
C4 C 0.24800(6) 0.8941(2) 0.43395(6)
C5 C 0.32137(6) 0.9327(2) 0.42991(6)
C6 C 0.30721(6) 0.4150(2) 0.56681(6)
C7 C 0.37558(7) 0.3175(3) 0.58858(6)
H3 H 0.4215(8) 0.396(3) 0.5670(8)
C8 C 0.38070(7) 0.1226(3) 0.63781(6)
H4 H 0.4294(8) 0.056(3) 0.6535(8)
C9 C 0.31781(8) 0.0147(3) 0.66588(7)
H5 H 0.3226(8) -0.128(3) 0.7006(8)
C10 C 0.25073(7) 0.1086(3) 0.64613(6)
H6 H 0.2065(8) 0.025(3) 0.6674(8)
C11 C 0.24336(6) 0.3138(3) 0.59717(6)
C12 C 0.17382(6) 0.4350(3) 0.57968(6)
C13 C 0.11003(7) 0.3670(3) 0.61538(6)
H7 H 0.1119(7) 0.221(3) 0.6501(8)
C14 C 0.04652(7) 0.5026(3) 0.60526(6)
H8 H 0.0008(8) 0.451(3) 0.6316(7)
C15 C 0.04440(7) 0.7193(3) 0.56043(7)
H9 H -0.0009(8) 0.828(3) 0.5564(8)
C16 C 0.10504(6) 0.7867(3) 0.52361(6)
H10 H 0.1033(7) 0.945(3) 0.4932(8)
C17 C 0.16987(6) 0.6400(3) 0.52936(6)
C18 C 0.20066(6) 1.0125(3) 0.38157(5)
C19 C 0.13028(6) 0.9165(3) 0.36699(6)
H11 H 0.1130(7) 0.764(3) 0.3920(7)
C20 C 0.08719(7) 1.0288(3) 0.31582(6)
H12 H 0.0372(8) 0.958(3) 0.3060(8)
C21 C 0.11302(7) 1.2401(3) 0.27720(7)
H13 H 0.0807(8) 1.327(3) 0.2413(8)
C22 C 0.18280(7) 1.3286(3) 0.28766(6)
H14 H 0.2016(8) 1.474(3) 0.2576(8)
C23 C 0.22930(6) 1.2130(3) 0.33850(6)
C24 C 0.30604(6) 1.2801(3) 0.34273(6)
C25 C 0.33724(7) 1.4824(3) 0.30300(6)
H15 H 0.3052(7) 1.598(3) 0.2749(8)
C26 C 0.41115(7) 1.5176(3) 0.30168(6)
H16 H 0.4317(8) 1.660(3) 0.2741(8)
C27 C 0.45748(7) 1.3537(3) 0.34039(7)
H17 H 0.5123(8) 1.378(3) 0.3385(8)
C28 C 0.42864(6) 1.1614(3) 0.38199(6)
H18 H 0.4608(7) 1.043(3) 0.4116(7)
C29 C 0.35273(6) 1.1221(3) 0.38476(6)
loop_
_geom_bond_atom_site_label_1
_geom_bond_atom_site_label_2
_geom_bond_distance
_geom_bond_site_symmetry_1
_geom_bond_site_symmetry_2
C1 H1 1.019 1_555 1_555
H2 C1 0.999 1_555 1_555
C2 C1 1.502 1_555 1_555
C3 C2 1.372 1_555 1_555
C4 C3 1.481 1_555 1_555
C5 C1 1.497 1_555 1_555
C6 C2 1.426 1_555 1_555
C7 C6 1.412 1_555 1_555
H3 C7 1.030 1_555 1_555
C8 C7 1.371 1_555 1_555
H4 C8 1.002 1_555 1_555
C9 C8 1.400 1_555 1_555
H5 C9 0.988 1_555 1_555
C10 C9 1.374 1_555 1_555
H6 C10 1.013 1_555 1_555
C11 C6 1.420 1_555 1_555
C12 C11 1.458 1_555 1_555
C13 C12 1.415 1_555 1_555
H7 C13 0.998 1_555 1_555
C14 C13 1.371 1_555 1_555
H8 C14 1.025 1_555 1_555
C15 C14 1.399 1_555 1_555
H9 C15 1.005 1_555 1_555
C16 C15 1.377 1_555 1_555
H10 C16 0.995 1_555 1_555
C17 C3 1.448 1_555 1_555
C18 C4 1.450 1_555 1_555
C19 C18 1.411 1_555 1_555
H11 C19 0.970 1_555 1_555
C20 C19 1.376 1_555 1_555
H12 C20 1.005 1_555 1_555
C21 C20 1.395 1_555 1_555
H13 C21 1.005 1_555 1_555
C22 C21 1.376 1_555 1_555
H14 C22 1.004 1_555 1_555
C23 C18 1.421 1_555 1_555
C24 C23 1.458 1_555 1_555
C25 C24 1.410 1_555 1_555
H15 C25 0.987 1_555 1_555
C26 C25 1.377 1_555 1_555
H16 C26 0.978 1_555 1_555
C27 C26 1.398 1_555 1_555
H17 C27 1.021 1_555 1_555
C28 C27 1.376 1_555 1_555
H18 C28 1.013 1_555 1_555
C29 C5 1.425 1_555 1_555
C4 C5 1.372 1_555 1_555
C10 C11 1.409 1_555 1_555
C12 C17 1.422 1_555 1_555
C16 C17 1.414 1_555 1_555
C22 C23 1.415 1_555 1_555
C24 C29 1.419 1_555 1_555
C28 C29 1.417 1_555 1_555
#END
