
#######################################################################
#
#                 Cambridge Crystallographic Data Centre
#                                CCDC
#
#######################################################################
#
# If this CIF has been generated from an entry in the Cambridge
# Structural Database, then it will include bibliographic, chemical,
# crystal, experimental, refinement or atomic coordinate data resulting
# from the CCDC's data processing and validation procedures.
#
#######################################################################

data_CSD_CIF_WEVVOI
_audit_creation_date 1995-01-18
_audit_creation_method CSD-ConQuest-V1
_database_code_CSD WEVVOI
_database_code_depnum_ccdc_fiz 'CSD 390013'
_chemical_formula_sum 'C30 H32'
_chemical_formula_moiety
;
C30 H32
;
_journal_coden_Cambridge 643
_journal_volume 209
_journal_year 1994
_journal_page_first 367
_journal_name_full 'Z.Krist.Cryst.Mater. '
loop_
_publ_author_name
"P.G.Jones"
"H.Hopf"
"J.Hucker"
_chemical_name_systematic
;
6,9-Di-iospropyl-(2.2)(1,4)phenanthrenoparacyclophane
;
_cell_volume   2242.103
_exptl_crystal_colour 'colorless'
_exptl_crystal_density_diffrn 1.163
_diffrn_ambient_temperature ?
_diffrn_special_details
;
The study was carried out at room temperature,in the range 283-303K

;
#These two values have been output from a single CSD field.
_refine_ls_R_factor_gt 0.046
_refine_ls_wR_factor_gt 0.046
_symmetry_cell_setting monoclinic
_symmetry_space_group_name_H-M 'P 21/n'
_symmetry_Int_Tables_number 14
loop_
_symmetry_equiv_pos_site_id
_symmetry_equiv_pos_as_xyz
1 x,y,z
2 1/2-x,1/2+y,1/2-z
3 -x,-y,-z
4 -1/2+x,-1/2-y,-1/2+z
_cell_length_a 10.779(4)
_cell_length_b 11.402(4)
_cell_length_c 18.245(6)
_cell_angle_alpha 90
_cell_angle_beta 90.85(3)
_cell_angle_gamma 90
_cell_formula_units_Z 4
loop_
_atom_type_symbol
_atom_type_radius_bond
C 0.68
H 0.23
loop_
_atom_site_label
_atom_site_type_symbol
_atom_site_fract_x
_atom_site_fract_y
_atom_site_fract_z
C1 C 0.2615(2) 0.5368(2) 0.79693(14)
H1 H 0.1995(2) 0.5492(2) 0.83416(14)
H2 H 0.2259(2) 0.4858(2) 0.75958(14)
C2 C 0.2971(2) 0.6576(2) 0.76169(13)
H3 H 0.2455(2) 0.6702(2) 0.71840(13)
H4 H 0.2792(2) 0.7197(2) 0.79625(13)
C3 C 0.4325(2) 0.6660(2) 0.74024(11)
C4 C 0.4828(2) 0.5945(2) 0.68420(9)
C5 C 0.4033(2) 0.5333(2) 0.63416(10)
H5 H 0.3197(2) 0.5533(2) 0.63167(10)
C6 C 0.4452(2) 0.4477(2) 0.59055(10)
H6 H 0.3886(2) 0.4042(2) 0.56289(10)
C7 C 0.5752(2) 0.42140(15) 0.58533(9)
C8 C 0.6188(2) 0.33000(15) 0.53892(9)
C9 C 0.7440(2) 0.3217(2) 0.52915(10)
H7 H 0.7760(2) 0.2584(2) 0.50335(10)
C10 C 0.8244(2) 0.4068(2) 0.55736(10)
H8 H 0.9078(2) 0.4028(2) 0.54539(10)
C11 C 0.7860(2) 0.4962(2) 0.60195(9)
C12 C 0.6596(2) 0.49560(15) 0.62415(9)
C13 C 0.6124(2) 0.57086(15) 0.68235(9)
C14 C 0.6870(2) 0.6088(2) 0.74317(9)
C15 C 0.6399(2) 0.6961(2) 0.78681(11)
H9 H 0.6931(2) 0.7359(2) 0.81879(11)
C16 C 0.5147(2) 0.7265(2) 0.78436(11)
H10 H 0.4865(2) 0.7883(2) 0.81289(11)
C17 C 0.7960(2) 0.5375(2) 0.77257(10)
H11 H 0.8652(2) 0.5898(2) 0.78246(10)
H12 H 0.8215(2) 0.4822(2) 0.73529(10)
C18 C 0.7651(2) 0.4683(3) 0.84460(12)
H13 H 0.8082(2) 0.3936(3) 0.84416(12)
H14 H 0.7955(2) 0.5125(3) 0.88660(12)
C19 C 0.6287(2) 0.4465(2) 0.85290(11)
C20 C 0.5592(2) 0.5105(2) 0.90279(12)
H15 H 0.5981(2) 0.5427(2) 0.94392(12)
C21 C 0.4333(2) 0.5266(2) 0.89192(12)
H16 H 0.3881(2) 0.5696(2) 0.92561(12)
C22 C 0.3739(2) 0.4787(2) 0.83094(12)
C23 C 0.4384(2) 0.3956(2) 0.79131(12)
H17 H 0.3962(2) 0.3498(2) 0.75692(12)
C24 C 0.5640(2) 0.3797(2) 0.80203(11)
H18 H 0.6056(2) 0.3235(2) 0.77481(11)
C25 C 0.5284(2) 0.2468(2) 0.50092(11)
H19 H 0.4664(2) 0.2951(2) 0.47527(11)
C26 C 0.5879(2) 0.1680(2) 0.44378(13)
H20 H 0.5245(3) 0.1242(9) 0.4184(5)
H21 H 0.6445(10) 0.1148(8) 0.46763(15)
H22 H 0.6321(11) 0.2153(2) 0.4094(4)
C27 C 0.4592(2) 0.1707(2) 0.55597(14)
H23 H 0.3965(9) 0.1259(9) 0.5307(2)
H24 H 0.4210(11) 0.2201(2) 0.5918(5)
H25 H 0.5166(3) 0.1185(9) 0.5800(6)
C28 C 0.8711(2) 0.6020(2) 0.61287(10)
H26 H 0.8402(2) 0.6473(2) 0.65445(10)
C29 C 0.8601(2) 0.6789(2) 0.54457(12)
H27 H 0.9154(9) 0.7446(6) 0.5494(3)
H28 H 0.7764(3) 0.7067(9) 0.5392(4)
H29 H 0.8817(11) 0.6339(4) 0.50218(14)
C30 C 1.0064(2) 0.5716(2) 0.62899(13)
H30 H 1.0524(3) 0.6423(2) 0.6383(7)
H31 H 1.0406(4) 0.5318(11) 0.5876(3)
H32 H 1.0115(2) 0.5216(10) 0.6713(5)
loop_
_geom_bond_atom_site_label_1
_geom_bond_atom_site_label_2
_geom_bond_distance
_geom_bond_site_symmetry_1
_geom_bond_site_symmetry_2
C1 H1 0.970 1_555 1_555
H2 C1 0.971 1_555 1_555
C2 C1 1.570 1_555 1_555
H3 C2 0.970 1_555 1_555
H4 C2 0.969 1_555 1_555
C3 C2 1.520 1_555 1_555
C4 C3 1.421 1_555 1_555
C5 C4 1.425 1_555 1_555
H5 C5 0.930 1_555 1_555
C6 C5 1.342 1_555 1_555
H6 C6 0.929 1_555 1_555
C7 C6 1.438 1_555 1_555
C8 C7 1.427 1_555 1_555
C9 C8 1.367 1_555 1_555
H7 C9 0.931 1_555 1_555
C10 C9 1.394 1_555 1_555
H8 C10 0.929 1_555 1_555
C11 C10 1.372 1_555 1_555
C12 C7 1.423 1_555 1_555
C13 C4 1.424 1_555 1_555
C14 C13 1.428 1_555 1_555
C15 C14 1.376 1_555 1_555
H9 C15 0.930 1_555 1_555
C16 C3 1.374 1_555 1_555
H10 C16 0.930 1_555 1_555
C17 C14 1.520 1_555 1_555
H11 C17 0.970 1_555 1_555
H12 C17 0.970 1_555 1_555
C18 C17 1.573 1_555 1_555
H13 C18 0.970 1_555 1_555
H14 C18 0.970 1_555 1_555
C19 C18 1.501 1_555 1_555
C20 C19 1.394 1_555 1_555
H15 C20 0.930 1_555 1_555
C21 C20 1.381 1_555 1_555
H16 C21 0.930 1_555 1_555
C22 C1 1.506 1_555 1_555
C23 C22 1.385 1_555 1_555
H17 C23 0.930 1_555 1_555
C24 C19 1.382 1_555 1_555
H18 C24 0.930 1_555 1_555
C25 C8 1.520 1_555 1_555
H19 C25 0.980 1_555 1_555
C26 C25 1.525 1_555 1_555
H20 C26 0.960 1_555 1_555
H21 C26 0.960 1_555 1_555
H22 C26 0.959 1_555 1_555
C27 C25 1.530 1_555 1_555
H23 C27 0.960 1_555 1_555
H24 C27 0.960 1_555 1_555
H25 C27 0.960 1_555 1_555
C28 C11 1.527 1_555 1_555
H26 C28 0.980 1_555 1_555
C29 C28 1.527 1_555 1_555
H27 C29 0.961 1_555 1_555
H28 C29 0.960 1_555 1_555
H29 C29 0.960 1_555 1_555
C30 C28 1.523 1_555 1_555
H30 C30 0.960 1_555 1_555
H31 C30 0.959 1_555 1_555
H32 C30 0.961 1_555 1_555
C11 C12 1.427 1_555 1_555
C12 C13 1.462 1_555 1_555
C15 C16 1.393 1_555 1_555
C21 C22 1.387 1_555 1_555
C23 C24 1.377 1_555 1_555
#END
