
#######################################################################
#
#                 Cambridge Crystallographic Data Centre
#                                CCDC
#
#######################################################################
#
# If this CIF has been generated from an entry in the Cambridge
# Structural Database, then it will include bibliographic, chemical,
# crystal, experimental, refinement or atomic coordinate data resulting
# from the CCDC's data processing and validation procedures.
#
#######################################################################

data_CSD_CIF_WEVVIC
_audit_creation_date 1995-01-18
_audit_creation_method CSD-ConQuest-V1
_database_code_CSD WEVVIC
_database_code_depnum_ccdc_fiz 'CSD 390012'
_chemical_formula_sum 'C26 H24'
_chemical_formula_moiety
;
C26 H24
;
_journal_coden_Cambridge 643
_journal_volume 209
_journal_year 1994
_journal_page_first 367
_journal_name_full 'Z.Krist.Cryst.Mater. '
loop_
_publ_author_name
"P.G.Jones"
"H.Hopf"
"J.Hucker"
_chemical_name_systematic
;
6,9-Dimethyl-(2.2)(1,4)phenanthrenoparacyclophane
;
_cell_volume   1819.545
_exptl_crystal_colour 'colorless'
_exptl_crystal_density_diffrn 1.228
_diffrn_ambient_temperature ?
_diffrn_special_details
;
The study was carried out at room temperature,in the range 283-303K

;
#These two values have been output from a single CSD field.
_refine_ls_R_factor_gt 0.044
_refine_ls_wR_factor_gt 0.044
_symmetry_cell_setting monoclinic
_symmetry_space_group_name_H-M 'P 21/n'
_symmetry_Int_Tables_number 14
loop_
_symmetry_equiv_pos_site_id
_symmetry_equiv_pos_as_xyz
1 x,y,z
2 1/2-x,1/2+y,1/2-z
3 -x,-y,-z
4 -1/2+x,-1/2-y,-1/2+z
_cell_length_a 13.963(7)
_cell_length_b 7.745(3)
_cell_length_c 16.867(6)
_cell_angle_alpha 90
_cell_angle_beta 94.03(4)
_cell_angle_gamma 90
_cell_formula_units_Z 4
loop_
_atom_type_symbol
_atom_type_radius_bond
C 0.68
H 0.23
loop_
_atom_site_label
_atom_site_type_symbol
_atom_site_fract_x
_atom_site_fract_y
_atom_site_fract_z
C1 C 0.4668(2) 0.3126(3) 0.37871(12)
H1 H 0.4990(2) 0.2710(3) 0.42786(12)
H2 H 0.4217(2) 0.2244(3) 0.35915(12)
C2 C 0.41031(13) 0.4821(3) 0.39577(9)
H3 H 0.34270(13) 0.4544(3) 0.39721(9)
H4 H 0.43254(13) 0.5254(3) 0.44781(9)
C3 C 0.42149(11) 0.6233(2) 0.33477(9)
C4 C 0.37307(10) 0.6191(2) 0.25797(8)
C5 C 0.29706(11) 0.4989(2) 0.23908(9)
H5 H 0.27271(11) 0.4348(2) 0.27972(9)
C6 C 0.25993(12) 0.4763(2) 0.1641(1)
H6 H 0.21762(12) 0.3854(2) 0.1530(1)
C7 C 0.2837(1) 0.5885(2) 0.10073(9)
C8 C 0.23638(11) 0.5735(2) 0.02375(9)
C9 C 0.25254(12) 0.6975(2) -0.03142(9)
H7 H 0.22652(12) 0.6845(2) -0.08335(9)
C10 C 0.30705(12) 0.8421(2) -0.01112(9)
H8 H 0.31192(12) 0.9290(2) -0.04868(9)
C11 C 0.35446(11) 0.8620(2) 0.06297(9)
C12 C 0.3505(1) 0.7239(2) 0.11833(8)
C13 C 0.40622(10) 0.7208(2) 0.19515(8)
C14 C 0.49762(11) 0.8021(2) 0.20821(9)
C15 C 0.53125(12) 0.8294(2) 0.28581(10)
H9 H 0.58159(12) 0.9064(2) 0.29651(10)
C16 C 0.49220(11) 0.7452(2) 0.34854(9)
H10 H 0.51412(11) 0.7715(2) 0.40048(9)
C17 C 0.56778(12) 0.8165(3) 0.14397(11)
H11 H 0.59855(12) 0.9287(3) 0.14812(11)
H12 H 0.53217(12) 0.8107(3) 0.09254(11)
C18 C 0.6474(2) 0.6739(3) 0.14746(15)
H13 H 0.6536(2) 0.6300(3) 0.09420(15)
H14 H 0.7082(2) 0.7262(3) 0.16540(15)
C19 C 0.62830(13) 0.5254(3) 0.20113(12)
C20 C 0.66768(13) 0.5212(3) 0.27903(13)
H15 H 0.72455(13) 0.5802(3) 0.29242(13)
C21 C 0.62372(13) 0.4310(3) 0.33673(13)
H16 H 0.65112(13) 0.4305(3) 0.38860(13)
C22 C 0.53968(13) 0.3415(2) 0.31871(11)
C23 C 0.51337(14) 0.3153(2) 0.23905(12)
H17 H 0.46562(14) 0.2354(2) 0.22447(12)
C24 C 0.55670(14) 0.4057(3) 0.18081(12)
H18 H 0.53784(14) 0.3862(3) 0.12758(12)
C25 C 0.16764(14) 0.4280(3) 0.00290(11)
H19 H 0.1118(4) 0.4401(9) 0.0325(5)
H20 H 0.1984(3) 0.3198(3) 0.0158(7)
H21 H 0.1489(7) 0.4315(10) -0.0529(2)
C26 C 0.39419(15) 1.0387(2) 0.08392(11)
H22 H 0.4563(4) 1.0512(6) 0.0634(6)
H23 H 0.3999(8) 1.0519(6) 0.14064(11)
H24 H 0.3516(4) 1.1254(2) 0.0610(6)
loop_
_geom_bond_atom_site_label_1
_geom_bond_atom_site_label_2
_geom_bond_distance
_geom_bond_site_symmetry_1
_geom_bond_site_symmetry_2
C1 H1 0.970 1_555 1_555
H2 C1 0.971 1_555 1_555
C2 C1 1.569 1_555 1_555
H3 C2 0.970 1_555 1_555
H4 C2 0.970 1_555 1_555
C3 C2 1.517 1_555 1_555
C4 C3 1.419 1_555 1_555
C5 C4 1.431 1_555 1_555
H5 C5 0.930 1_555 1_555
C6 C5 1.344 1_555 1_555
H6 C6 0.930 1_555 1_555
C7 C6 1.434 1_555 1_555
C8 C7 1.420 1_555 1_555
C9 C8 1.367 1_555 1_555
H7 C9 0.930 1_555 1_555
C10 C9 1.384 1_555 1_555
H8 C10 0.930 1_555 1_555
C11 C10 1.381 1_555 1_555
C12 C7 1.421 1_555 1_555
C13 C4 1.423 1_555 1_555
C14 C13 1.426 1_555 1_555
C15 C14 1.375 1_555 1_555
H9 C15 0.930 1_555 1_555
C16 C3 1.374 1_555 1_555
H10 C16 0.930 1_555 1_555
C17 C14 1.515 1_555 1_555
H11 C17 0.970 1_555 1_555
H12 C17 0.970 1_555 1_555
C18 C17 1.565 1_555 1_555
H13 C18 0.970 1_555 1_555
H14 C18 0.970 1_555 1_555
C19 C18 1.499 1_555 1_555
C20 C19 1.389 1_555 1_555
H15 C20 0.930 1_555 1_555
C21 C20 1.377 1_555 1_555
H16 C21 0.930 1_555 1_555
C22 C1 1.502 1_555 1_555
C23 C22 1.383 1_555 1_555
H17 C23 0.930 1_555 1_555
C24 C19 1.389 1_555 1_555
H18 C24 0.930 1_555 1_555
C25 C8 1.506 1_555 1_555
H19 C25 0.960 1_555 1_555
H20 C25 0.960 1_555 1_555
H21 C25 0.959 1_555 1_555
C26 C11 1.509 1_555 1_555
H22 C26 0.961 1_555 1_555
H23 C26 0.960 1_555 1_555
H24 C26 0.960 1_555 1_555
C11 C12 1.423 1_555 1_555
C12 C13 1.464 1_555 1_555
C15 C16 1.387 1_555 1_555
C21 C22 1.378 1_555 1_555
C23 C24 1.380 1_555 1_555
#END
