
#######################################################################
#
#                 Cambridge Crystallographic Data Centre
#                                CCDC
#
#######################################################################
#
# If this CIF has been generated from an entry in the Cambridge
# Structural Database, then it will include bibliographic, chemical,
# crystal, experimental, refinement or atomic coordinate data resulting
# from the CCDC's data processing and validation procedures.
#
#######################################################################

data_CSD_CIF_WEXDOS
_audit_creation_date 1994-12-19
_audit_creation_method CSD-ConQuest-V1
_database_code_CSD WEXDOS
_chemical_formula_sum 'C42 H24'
_chemical_formula_moiety
;
C42 H24
;
_journal_coden_Cambridge 95
_journal_year 1994
_journal_page_first 846
_journal_name_full 'Izv.Akad.Nauk SSSR,Ser.Khim.(Russ.)(Russ.Chem.Bull.) '
loop_
_publ_author_name
"A.I.Kovalev"
"T.N.Balykova"
"S.V.Lindeman"
"M.M.Teplyakov"
"I.A.Khotina"
"A.L.Rusanov"
"Yu.T.Struchkov"
_chemical_name_systematic
;
1,3,5-tris(5-Acenaphthylenyl)benzene
;
_cell_volume   5544.594
_exptl_crystal_density_diffrn 1.267
_diffrn_ambient_temperature 153
#These two values have been output from a single CSD field.
_refine_ls_R_factor_gt 0.083
_refine_ls_wR_factor_gt 0.083
_symmetry_cell_setting orthorhombic
_symmetry_space_group_name_H-M 'P c a b'
_symmetry_Int_Tables_number 61
loop_
_symmetry_equiv_pos_site_id
_symmetry_equiv_pos_as_xyz
1 x,y,z
2 1/2-x,y,1/2+z
3 1/2+x,1/2-y,z
4 -x,1/2-y,1/2+z
5 -x,-y,-z
6 -1/2+x,-y,-1/2-z
7 -1/2-x,-1/2+y,-z
8 x,-1/2+y,-1/2-z
_cell_length_a 13.32(1)
_cell_length_b 16.44(1)
_cell_length_c 25.32(2)
_cell_angle_alpha 90
_cell_angle_beta 90
_cell_angle_gamma 90
_cell_formula_units_Z 8
loop_
_atom_type_symbol
_atom_type_radius_bond
C 0.68
loop_
_atom_site_label
_atom_site_type_symbol
_atom_site_fract_x
_atom_site_fract_y
_atom_site_fract_z
C1 C 0.0243(10) 0.3023(9) 0.6844(6)
C2 C 0.0374(11) 0.2463(10) 0.7269(6)
C3 C -0.0450(9) 0.2360(9) 0.7619(6)
C4 C -0.1379(10) 0.2779(8) 0.7561(6)
C5 C -0.1453(10) 0.3331(9) 0.7130(6)
C6 C -0.0651(10) 0.3456(9) 0.6758(6)
C7 C 0.1137(10) 0.3175(8) 0.6480(6)
C8 C 0.2041(11) 0.3406(9) 0.6706(7)
C9 C 0.2892(11) 0.3632(8) 0.6386(7)
C10 C 0.2782(10) 0.3596(8) 0.5827(6)
C11 C 0.1845(9) 0.3322(9) 0.5063(6)
C12 C 0.1036(11) 0.3054(9) 0.4781(7)
C13 C 0.0179(11) 0.2804(9) 0.5085(6)
C14 C 0.0122(11) 0.2803(9) 0.5646(6)
C15 C 0.3417(11) 0.3774(9) 0.5363(7)
C16 C 0.2874(10) 0.3622(9) 0.4908(6)
C17 C 0.1831(9) 0.3324(9) 0.5630(6)
C18 C 0.0997(10) 0.3113(9) 0.5926(5)
C19 C -0.0373(10) 0.1813(9) 0.8078(6)
C20 C -0.1114(10) 0.1207(9) 0.8160(6)
C21 C -0.1013(10) 0.0599(9) 0.8562(7)
C22 C -0.0159(11) 0.0569(9) 0.8866(7)
C23 C 0.1407(11) 0.110(1) 0.9134(6)
C24 C 0.2204(11) 0.1672(11) 0.9124(7)
C25 C 0.2112(11) 0.2356(10) 0.8747(6)
C26 C 0.1317(11) 0.2439(10) 0.8399(6)
C27 C 0.0236(13) 0.0082(11) 0.9316(7)
C28 C 0.1146(13) 0.0388(9) 0.9470(7)
C29 C 0.0584(10) 0.1187(9) 0.8772(6)
C30 C 0.0504(10) 0.1842(10) 0.8403(6)
C31 C -0.2384(11) 0.3874(9) 0.7087(7)
C32 C -0.2773(9) 0.4236(8) 0.7563(7)
C33 C -0.3632(10) 0.4774(8) 0.7555(7)
C34 C -0.4075(10) 0.4922(9) 0.7062(7)
C35 C -0.4218(11) 0.4804(10) 0.6145(8)
C36 C -0.3932(12) 0.4471(11) 0.5660(7)
C37 C -0.3123(11) 0.393(1) 0.5637(7)
C38 C -0.2571(11) 0.3667(8) 0.6083(6)
C39 C -0.4925(11) 0.5442(9) 0.6882(7)
C40 C -0.5016(12) 0.5384(9) 0.6327(8)
C41 C -0.3661(9) 0.4552(9) 0.6598(6)
C42 C -0.2854(9) 0.3998(9) 0.6590(6)
loop_
_geom_bond_atom_site_label_1
_geom_bond_atom_site_label_2
_geom_bond_distance
_geom_bond_site_symmetry_1
_geom_bond_site_symmetry_2
C1 C2 1.427 1_555 1_555
C2 C3 1.421 1_555 1_555
C3 C4 1.424 1_555 1_555
C4 C5 1.423 1_555 1_555
C5 C6 1.439 1_555 1_555
C6 C1 1.404 1_555 1_555
C7 C1 1.526 1_555 1_555
C8 C7 1.386 1_555 1_555
C9 C8 1.442 1_555 1_555
C10 C9 1.424 1_555 1_555
C11 C12 1.366 1_555 1_555
C12 C13 1.437 1_555 1_555
C13 C14 1.422 1_555 1_555
C14 C18 1.456 1_555 1_555
C15 C10 1.477 1_555 1_555
C16 C11 1.509 1_555 1_555
C17 C10 1.433 1_555 1_555
C18 C7 1.419 1_555 1_555
C19 C3 1.473 1_555 1_555
C20 C19 1.418 1_555 1_555
C21 C20 1.433 1_555 1_555
C22 C21 1.374 1_555 1_555
C23 C24 1.418 1_555 1_555
C24 C25 1.480 1_555 1_555
C25 C26 1.384 1_555 1_555
C26 C30 1.462 1_555 1_555
C27 C22 1.489 1_555 1_555
C28 C23 1.488 1_555 1_555
C29 C22 1.438 1_555 1_555
C30 C19 1.430 1_555 1_555
C31 C5 1.532 1_555 1_555
C32 C31 1.441 1_555 1_555
C33 C32 1.446 1_555 1_555
C34 C33 1.402 1_555 1_555
C35 C36 1.397 1_555 1_555
C36 C37 1.398 1_555 1_555
C37 C38 1.415 1_555 1_555
C38 C42 1.444 1_555 1_555
C39 C34 1.490 1_555 1_555
C40 C35 1.500 1_555 1_555
C41 C34 1.433 1_555 1_555
C42 C31 1.420 1_555 1_555
C11 C17 1.436 1_555 1_555
C15 C16 1.383 1_555 1_555
C17 C18 1.384 1_555 1_555
C23 C29 1.436 1_555 1_555
C27 C28 1.369 1_555 1_555
C29 C30 1.430 1_555 1_555
C35 C41 1.427 1_555 1_555
C39 C40 1.414 1_555 1_555
C41 C42 1.409 1_555 1_555
#END
