
#######################################################################
#
#                 Cambridge Crystallographic Data Centre
#                                CCDC
#
#######################################################################
#
# If this CIF has been generated from an entry in the Cambridge
# Structural Database, then it will include bibliographic, chemical,
# crystal, experimental, refinement or atomic coordinate data resulting
# from the CCDC's data processing and validation procedures.
#
#######################################################################

data_CSD_CIF_WIWZIM
_audit_creation_date 2008-07-15
_audit_creation_method CSD-ConQuest-V1
_database_code_CSD WIWZIM
_database_code_depnum_ccdc_archive 'CCDC 661597'
_chemical_formula_sum 'C39 H30'
_chemical_formula_moiety
;
C39 H30
;
_journal_coden_Cambridge 16
_journal_volume 64
_journal_year 2008
_journal_page_first 1285
_journal_name_full 'Tetrahedron '
loop_
_publ_author_name
"Yanzhong Zhang"
"J.L.Petersen"
"K.K.Wang"
_chemical_name_systematic
;
7-t-butyl-13-phenyl-8H-indeno[1,2-b]pentahelicene
;
_chemical_melting_point 523.15
_cell_volume   2680.429
_exptl_crystal_density_diffrn 1.236
_exptl_special_details
;
Melts above 523.15K

;
_exptl_crystal_preparation 'dichloromethane/hexanes'
_diffrn_ambient_temperature 295
#These two values have been output from a single CSD field.
_refine_ls_R_factor_gt 0.0667
_refine_ls_wR_factor_gt 0.0667
_symmetry_cell_setting triclinic
_symmetry_space_group_name_H-M 'P -1'
_symmetry_Int_Tables_number 2
loop_
_symmetry_equiv_pos_site_id
_symmetry_equiv_pos_as_xyz
1 x,y,z
2 -x,-y,-z
_cell_length_a 9.9442(6)
_cell_length_b 15.1244(8)
_cell_length_c 18.6721(10)
_cell_angle_alpha 92.010(1)
_cell_angle_beta 102.111(1)
_cell_angle_gamma 101.648(1)
_cell_formula_units_Z 4
loop_
_atom_type_symbol
_atom_type_radius_bond
C 0.68
H 0.23
loop_
_atom_site_label
_atom_site_type_symbol
_atom_site_fract_x
_atom_site_fract_y
_atom_site_fract_z
C1 C 0.4854(2) 0.75068(13) 0.43222(11)
C2 C 0.5597(3) 0.83324(15) 0.48493(13)
H1 H 0.58400 0.88600 0.45840
H2 H 0.50100 0.84640 0.51770
C3 C 0.6883(3) 0.80672(15) 0.52645(12)
C4 C 0.7893(4) 0.85537(19) 0.58494(15)
H3 H 0.78480 0.91360 0.60060
C5 C 0.8964(3) 0.8159(2) 0.61944(15)
H4 H 0.96540 0.84810 0.65830
C6 C 0.9022(3) 0.7299(2) 0.59718(14)
H5 H 0.97380 0.70380 0.62200
C7 C 0.8038(3) 0.68110(18) 0.53865(13)
H6 H 0.80860 0.62260 0.52400
C8 C 0.6968(2) 0.72096(14) 0.50162(11)
C9 C 0.5763(2) 0.68754(13) 0.43912(11)
C10 C 0.5437(2) 0.60921(13) 0.39305(10)
C11 C 0.4097(2) 0.58814(13) 0.34358(11)
C12 C 0.3684(2) 0.50816(13) 0.29132(11)
C13 C 0.4621(3) 0.47364(13) 0.25417(10)
C14 C 0.5846(2) 0.52906(14) 0.23454(10)
C15 C 0.6085(2) 0.62441(14) 0.23589(11)
H7 H 0.54690 0.65430 0.25300
C16 C 0.7200(3) 0.67378(16) 0.21268(12)
H8 H 0.73240 0.73650 0.21340
C17 C 0.8157(3) 0.6308(2) 0.18781(13)
H9 H 0.89360 0.66480 0.17390
C18 C 0.7939(3) 0.5398(2) 0.18415(13)
H10 H 0.85770 0.51160 0.16740
C19 C 0.6771(3) 0.48585(17) 0.20493(12)
C20 C 0.6453(4) 0.38997(19) 0.19209(14)
H11 H 0.71100 0.36110 0.17800
C21 C 0.5227(4) 0.34075(18) 0.19989(14)
H12 H 0.50130 0.27870 0.18730
C22 C 0.4236(3) 0.38116(15) 0.22705(12)
C23 C 0.2859(4) 0.33104(17) 0.22512(13)
H13 H 0.26240 0.26960 0.21000
C24 C 0.1891(3) 0.37107(17) 0.24484(13)
H14 H 0.09610 0.33950 0.23680
C25 C 0.2269(3) 0.46109(16) 0.27787(12)
C26 C 0.1274(3) 0.50570(18) 0.29728(13)
H15 H 0.03430 0.47450 0.29020
C27 C 0.1631(3) 0.59274(17) 0.32590(12)
H16 H 0.09220 0.62340 0.32940
C28 C 0.3078(2) 0.63937(14) 0.35121(11)
C29 C 0.3497(2) 0.72857(14) 0.38936(11)
C30 C 0.6361(2) 0.54202(13) 0.40325(10)
C31 C 0.5851(2) 0.45814(14) 0.42685(11)
H17 H 0.49300 0.44360 0.43310
C32 C 0.6701(3) 0.39636(17) 0.44109(14)
H18 H 0.63480 0.34040 0.45670
C33 C 0.8059(3) 0.41672(19) 0.43252(15)
H19 H 0.86300 0.37490 0.44250
C34 C 0.8577(3) 0.49947(18) 0.40895(13)
H20 H 0.95020 0.51370 0.40330
C35 C 0.7732(2) 0.56080(15) 0.39379(11)
H21 H 0.80850 0.61590 0.37690
C36 C 0.2432(3) 0.79136(15) 0.38274(13)
C37 C 0.1407(3) 0.76505(19) 0.43332(15)
H22 H 0.07070 0.80120 0.42520
H23 H 0.19160 0.77530 0.48360
H24 H 0.09570 0.70220 0.42270
C38 C 0.1647(4) 0.7894(2) 0.30179(15)
H25 H 0.10990 0.72950 0.28560
H26 H 0.23190 0.80580 0.27180
H27 H 0.10370 0.83150 0.29770
C39 C 0.3123(4) 0.89222(17) 0.40375(19)
H28 H 0.24320 0.92820 0.38990
H29 H 0.38720 0.90970 0.37860
H30 H 0.34950 0.90160 0.45590
C40 C 0.4928(2) 0.73770(12) 0.05884(10)
C41 C 0.5674(2) 0.68066(13) 0.01891(11)
H31 H 0.60090 0.63570 0.04970
H32 H 0.50540 0.65010 -0.02610
C42 C 0.6880(2) 0.74801(13) 0.00284(11)
C43 C 0.7811(3) 0.73353(15) -0.03905(12)
H33 H 0.78040 0.67520 -0.05690
C44 C 0.8756(3) 0.80659(17) -0.05417(12)
H34 H 0.94020 0.79760 -0.08170
C45 C 0.8745(2) 0.89278(16) -0.02867(11)
H35 H 0.93590 0.94170 -0.04120
C46 C 0.7843(2) 0.90846(13) 0.01528(10)
H36 H 0.78590 0.96700 0.03300
C47 C 0.6908(2) 0.83461(12) 0.03247(10)
C48 C 0.5767(2) 0.82779(12) 0.07277(10)
C49 C 0.5446(2) 0.89297(12) 0.11595(10)
C50 C 0.4134(2) 0.87118(13) 0.13786(10)
C51 C 0.3697(2) 0.93452(14) 0.18413(11)
C52 C 0.4615(3) 0.99471(13) 0.24378(11)
C53 C 0.5894(2) 0.97558(14) 0.28845(11)
C54 C 0.6221(2) 0.88916(14) 0.28870(11)
H37 H 0.56270 0.84220 0.25650
C55 C 0.7385(3) 0.87248(18) 0.33492(13)
H38 H 0.75690 0.81460 0.33420
C56 C 0.8300(3) 0.9418(2) 0.38314(15)
H39 H 0.91130 0.93100 0.41320
C57 C 0.8001(3) 1.0246(2) 0.38594(14)
H40 H 0.86140 1.07030 0.41850
C58 C 0.6790(3) 1.04386(16) 0.34123(13)
C59 C 0.6386(4) 1.12805(17) 0.35027(15)
H41 H 0.70180 1.17580 0.37990
C60 C 0.5104(4) 1.13963(17) 0.31664(15)
H42 H 0.48360 1.19330 0.32680
C61 C 0.4160(3) 1.07164(15) 0.26622(13)
C62 C 0.2732(4) 1.0779(2) 0.23989(16)
H43 H 0.24400 1.12980 0.25260
C63 C 0.1801(3) 1.0098(2) 0.19693(15)
H44 H 0.08500 1.01130 0.18610
C64 C 0.2246(3) 0.93647(17) 0.16825(12)
C65 C 0.1275(3) 0.8635(2) 0.12488(13)
H45 H 0.03270 0.86550 0.11280
C66 C 0.1690(2) 0.79097(18) 0.10063(12)
H46 H 0.10120 0.73980 0.07960
C67 C 0.3150(2) 0.79030(14) 0.10623(11)
C68 C 0.3608(2) 0.71675(13) 0.0745(1)
C69 C 0.6309(2) 0.98756(12) 0.12852(10)
C70 C 0.5739(2) 1.05681(13) 0.09601(11)
H47 H 0.48170 1.04400 0.06850
C71 C 0.6521(3) 1.14437(15) 0.10387(13)
H48 H 0.61270 1.19000 0.08150
C72 C 0.7879(3) 1.16429(15) 0.14473(13)
H49 H 0.84050 1.22340 0.15020
C73 C 0.8457(2) 1.09685(15) 0.17748(12)
H50 H 0.93730 1.11050 0.20560
C74 C 0.7685(2) 1.00858(13) 0.16903(11)
H51 H 0.80940 0.96310 0.19070
C75 C 0.2610(3) 0.62161(14) 0.05745(12)
C76 C 0.1520(3) 0.61886(18) -0.01515(13)
H52 H 0.20000 0.63330 -0.05420
H53 H 0.09540 0.66220 -0.01040
H54 H 0.09290 0.55930 -0.02610
C77 C 0.1891(3) 0.59659(18) 0.12195(14)
H55 H 0.13730 0.53490 0.11320
H56 H 0.12590 0.63590 0.12580
H57 H 0.25940 0.60330 0.16680
C78 C 0.3367(3) 0.54429(16) 0.04896(17)
H58 H 0.36810 0.54740 0.00370
H59 H 0.27300 0.48720 0.04850
H60 H 0.41630 0.54990 0.08940
loop_
_geom_bond_atom_site_label_1
_geom_bond_atom_site_label_2
_geom_bond_distance
_geom_bond_site_symmetry_1
_geom_bond_site_symmetry_2
C1 C2 1.520 1_555 1_555
C2 H1 0.970 1_555 1_555
H2 C2 0.971 1_555 1_555
C3 C2 1.487 1_555 1_555
C4 C3 1.388 1_555 1_555
H3 C4 0.931 1_555 1_555
C5 C4 1.379 1_555 1_555
H4 C5 0.931 1_555 1_555
C6 C5 1.368 1_555 1_555
H5 C6 0.930 1_555 1_555
C7 C6 1.378 1_555 1_555
H6 C7 0.930 1_555 1_555
C8 C3 1.387 1_555 1_555
C9 C1 1.433 1_555 1_555
C10 C9 1.380 1_555 1_555
C11 C10 1.422 1_555 1_555
C12 C11 1.460 1_555 1_555
C13 C12 1.437 1_555 1_555
C14 C13 1.455 1_555 1_555
C15 C14 1.412 1_555 1_555
H7 C15 0.930 1_555 1_555
C16 C15 1.366 1_555 1_555
H8 C16 0.931 1_555 1_555
C17 C16 1.399 1_555 1_555
H9 C17 0.930 1_555 1_555
C18 C17 1.346 1_555 1_555
H10 C18 0.930 1_555 1_555
C19 C14 1.418 1_555 1_555
C20 C19 1.421 1_555 1_555
H11 C20 0.931 1_555 1_555
C21 C20 1.333 1_555 1_555
H12 C21 0.930 1_555 1_555
C22 C13 1.418 1_555 1_555
C23 C22 1.417 1_555 1_555
H13 C23 0.930 1_555 1_555
C24 C23 1.341 1_555 1_555
H14 C24 0.930 1_555 1_555
C25 C12 1.409 1_555 1_555
C26 C25 1.403 1_555 1_555
H15 C26 0.930 1_555 1_555
C27 C26 1.352 1_555 1_555
H16 C27 0.930 1_555 1_555
C28 C11 1.420 1_555 1_555
C29 C1 1.385 1_555 1_555
C30 C10 1.493 1_555 1_555
C31 C30 1.391 1_555 1_555
H17 C31 0.931 1_555 1_555
C32 C31 1.379 1_555 1_555
H18 C32 0.930 1_555 1_555
C33 C32 1.368 1_555 1_555
H19 C33 0.931 1_555 1_555
C34 C33 1.378 1_555 1_555
H20 C34 0.931 1_555 1_555
C35 C30 1.385 1_555 1_555
H21 C35 0.929 1_555 1_555
C36 C29 1.549 1_555 1_555
C37 C36 1.535 1_555 1_555
H22 C37 0.960 1_555 1_555
H23 C37 0.959 1_555 1_555
H24 C37 0.960 1_555 1_555
C38 C36 1.545 1_555 1_555
H25 C38 0.960 1_555 1_555
H26 C38 0.960 1_555 1_555
H27 C38 0.959 1_555 1_555
C39 C36 1.541 1_555 1_555
H28 C39 0.960 1_555 1_555
H29 C39 0.960 1_555 1_555
H30 C39 0.961 1_555 1_555
C40 C41 1.515 1_555 1_555
C41 H31 0.971 1_555 1_555
H32 C41 0.970 1_555 1_555
C42 C41 1.498 1_555 1_555
C43 C42 1.375 1_555 1_555
H33 C43 0.930 1_555 1_555
C44 C43 1.378 1_555 1_555
H34 C44 0.930 1_555 1_555
C45 C44 1.375 1_555 1_555
H35 C45 0.930 1_555 1_555
C46 C45 1.384 1_555 1_555
H36 C46 0.930 1_555 1_555
C47 C42 1.397 1_555 1_555
C48 C40 1.430 1_555 1_555
C49 C48 1.380 1_555 1_555
C50 C49 1.428 1_555 1_555
C51 C50 1.456 1_555 1_555
C52 C51 1.438 1_555 1_555
C53 C52 1.455 1_555 1_555
C54 C53 1.409 1_555 1_555
H37 C54 0.931 1_555 1_555
C55 C54 1.365 1_555 1_555
H38 C55 0.930 1_555 1_555
C56 C55 1.394 1_555 1_555
H39 C56 0.930 1_555 1_555
C57 C56 1.346 1_555 1_555
H40 C57 0.929 1_555 1_555
C58 C53 1.421 1_555 1_555
C59 C58 1.425 1_555 1_555
H41 C59 0.930 1_555 1_555
C60 C59 1.346 1_555 1_555
H42 C60 0.929 1_555 1_555
C61 C52 1.411 1_555 1_555
C62 C61 1.425 1_555 1_555
H43 C62 0.930 1_555 1_555
C63 C62 1.344 1_555 1_555
H44 C63 0.930 1_555 1_555
C64 C51 1.417 1_555 1_555
C65 C64 1.409 1_555 1_555
H45 C65 0.929 1_555 1_555
C66 C65 1.344 1_555 1_555
H46 C66 0.930 1_555 1_555
C67 C50 1.423 1_555 1_555
C68 C40 1.381 1_555 1_555
C69 C49 1.495 1_555 1_555
C70 C69 1.388 1_555 1_555
H47 C70 0.930 1_555 1_555
C71 C70 1.379 1_555 1_555
H48 C71 0.930 1_555 1_555
C72 C71 1.372 1_555 1_555
H49 C72 0.930 1_555 1_555
C73 C72 1.370 1_555 1_555
H50 C73 0.929 1_555 1_555
C74 C69 1.385 1_555 1_555
H51 C74 0.930 1_555 1_555
C75 C68 1.554 1_555 1_555
C76 C75 1.541 1_555 1_555
H52 C76 0.960 1_555 1_555
H53 C76 0.959 1_555 1_555
H54 C76 0.960 1_555 1_555
C77 C75 1.546 1_555 1_555
H55 C77 0.960 1_555 1_555
H56 C77 0.959 1_555 1_555
H57 C77 0.959 1_555 1_555
C78 C75 1.534 1_555 1_555
H58 C78 0.960 1_555 1_555
H59 C78 0.961 1_555 1_555
H60 C78 0.960 1_555 1_555
C7 C8 1.398 1_555 1_555
C8 C9 1.477 1_555 1_555
C18 C19 1.412 1_555 1_555
C21 C22 1.426 1_555 1_555
C24 C25 1.419 1_555 1_555
C27 C28 1.440 1_555 1_555
C28 C29 1.443 1_555 1_555
C34 C35 1.371 1_555 1_555
C46 C47 1.395 1_555 1_555
C47 C48 1.477 1_555 1_555
C57 C58 1.403 1_555 1_555
C60 C61 1.413 1_555 1_555
C63 C64 1.403 1_555 1_555
C66 C67 1.436 1_555 1_555
C67 C68 1.438 1_555 1_555
C73 C74 1.385 1_555 1_555
#END
