
#######################################################################
#
#                 Cambridge Crystallographic Data Centre
#                                CCDC
#
#######################################################################
#
# If this CIF has been generated from an entry in the Cambridge
# Structural Database, then it will include bibliographic, chemical,
# crystal, experimental, refinement or atomic coordinate data resulting
# from the CCDC's data processing and validation procedures.
#
#######################################################################

data_CSD_CIF_WIYSUU
_audit_creation_date 2014-03-07
_audit_creation_method CSD-ConQuest-V1
_database_code_CSD WIYSUU
_database_code_depnum_ccdc_archive 'CCDC 990460'
_chemical_formula_sum 'C36 H26'
_chemical_formula_moiety
;
C36 H26
;
_journal_coden_Cambridge 1078
_journal_year 2014
_journal_name_full 'CSD Communication(Private Communication) '
loop_
_publ_author_name
"R.A.Pascal Junior"
"L.Isaacs"
"Donna Van Engen"
_chemical_name_systematic
;
4,5-Dimethyl-9,14-diphenylbenzo[f]tetraphene
;
_cell_volume   2397.487
_exptl_crystal_colour 'colorless'
_exptl_crystal_density_diffrn 1.27
_exptl_crystal_description 'Needle'
_diffrn_ambient_temperature 213
#These two values have been output from a single CSD field.
_refine_ls_R_factor_gt 0.054
_refine_ls_wR_factor_gt 0.054
_symmetry_cell_setting monoclinic
_symmetry_space_group_name_H-M 'P 21/c'
_symmetry_Int_Tables_number 14
loop_
_symmetry_equiv_pos_site_id
_symmetry_equiv_pos_as_xyz
1 x,y,z
2 -x,1/2+y,1/2-z
3 -x,-y,-z
4 x,-1/2-y,-1/2+z
_cell_length_a 9.924(2)
_cell_length_b 12.979(3)
_cell_length_c 19.024(3)
_cell_angle_alpha 90
_cell_angle_beta 101.924(13)
_cell_angle_gamma 90
_cell_formula_units_Z 4
loop_
_atom_type_symbol
_atom_type_radius_bond
C 0.68
H 0.23
loop_
_atom_site_label
_atom_site_type_symbol
_atom_site_fract_x
_atom_site_fract_y
_atom_site_fract_z
C1 C 0.2233(4) 0.2386(3) 0.0721(2)
C2 C 0.0971(4) 0.2414(3) 0.0242(2)
C3 C 0.0589(4) 0.1694(3) -0.0378(2)
C4 C 0.1266(5) 0.0751(3) -0.0390(2)
C5 C 0.0720(5) -0.0021(4) -0.0859(2)
C6 C -0.0558(5) 0.0111(4) -0.1300(2)
C7 C -0.1277(5) 0.1025(4) -0.1309(2)
C8 C -0.0651(4) 0.1858(3) -0.0892(2)
C9 C -0.1294(4) 0.2883(3) -0.0908(2)
C10 C -0.1985(4) 0.3363(4) -0.1555(2)
C11 C -0.2683(5) 0.4282(4) -0.1519(3)
C12 C -0.2614(5) 0.4774(4) -0.0868(3)
C13 C -0.1785(4) 0.4389(3) -0.0252(3)
C14 C -0.1132(4) 0.3431(3) -0.0254(2)
C15 C -0.0119(4) 0.3061(3) 0.0389(2)
C16 C -0.0064(4) 0.3413(3) 0.1086(2)
C17 C 0.1140(4) 0.3204(3) 0.1628(2)
C18 C 0.1219(5) 0.3492(4) 0.2352(2)
C19 C 0.2420(5) 0.3415(4) 0.2852(2)
C20 C 0.3616(5) 0.3053(4) 0.2655(2)
C21 C 0.3566(5) 0.2745(4) 0.1966(3)
C22 C 0.2323(4) 0.2769(3) 0.1433(2)
C23 C 0.3517(4) 0.2047(3) 0.0484(2)
C24 C 0.4378(5) 0.1268(3) 0.0822(3)
C25 C 0.5553(5) 0.1001(4) 0.0585(3)
C26 C 0.5922(5) 0.1528(4) 0.0020(3)
C27 C 0.5100(5) 0.2312(4) -0.0305(2)
C28 C 0.3906(4) 0.2566(3) -0.0086(2)
C29 C -0.2757(5) 0.1038(4) -0.1713(3)
C30 C -0.1860(5) 0.3019(4) -0.2298(2)
C31 C -0.1201(4) 0.4019(3) 0.1285(2)
C32 C -0.2536(4) 0.3626(4) 0.1173(2)
C33 C -0.3607(5) 0.4240(4) 0.1293(3)
C34 C -0.3377(5) 0.5235(4) 0.1532(3)
C35 C -0.2048(5) 0.5621(4) 0.1659(3)
C36 C -0.0984(5) 0.5014(4) 0.1538(2)
H1 H 0.21300 0.06370 -0.00640
H2 H 0.12230 -0.06480 -0.08790
H3 H -0.09560 -0.04450 -0.16060
H4 H -0.32170 0.45790 -0.19490
H5 H -0.31440 0.53870 -0.08440
H6 H -0.16500 0.47800 0.01850
H7 H 0.04110 0.37490 0.24970
H8 H 0.24430 0.36100 0.33410
H9 H 0.44660 0.30230 0.30030
H10 H 0.43930 0.25020 0.18350
H11 H 0.41520 0.09170 0.12260
H12 H 0.61180 0.04450 0.08120
H13 H 0.67440 0.13430 -0.01420
H14 H 0.53630 0.26920 -0.06880
H15 H 0.33290 0.31050 -0.03290
H16 H -0.31350 0.17130 -0.16800
H17 H -0.32790 0.05430 -0.15060
H18 H -0.27980 0.08700 -0.22090
H19 H -0.13630 0.23800 -0.22630
H20 H -0.13750 0.35310 -0.25130
H21 H -0.27630 0.29230 -0.25900
H22 H -0.27130 0.29260 0.10170
H23 H -0.45260 0.39680 0.12030
H24 H -0.41270 0.56550 0.16130
H25 H -0.18690 0.63130 0.18310
H26 H -0.00670 0.52910 0.16300
loop_
_geom_bond_atom_site_label_1
_geom_bond_atom_site_label_2
_geom_bond_distance
_geom_bond_site_symmetry_1
_geom_bond_site_symmetry_2
C1 C2 1.389 1_555 1_555
C2 C3 1.491 1_555 1_555
C3 C4 1.399 1_555 1_555
C4 C5 1.376 1_555 1_555
C5 C6 1.379 1_555 1_555
C6 C7 1.383 1_555 1_555
C7 C8 1.407 1_555 1_555
C8 C3 1.421 1_555 1_555
C9 C8 1.473 1_555 1_555
C10 C9 1.423 1_555 1_555
C11 C10 1.388 1_555 1_555
C12 C11 1.382 1_555 1_555
C13 C12 1.379 1_555 1_555
C14 C9 1.413 1_555 1_555
C15 C2 1.442 1_555 1_555
C16 C15 1.393 1_555 1_555
C17 C16 1.434 1_555 1_555
C18 C17 1.414 1_555 1_555
C19 C18 1.366 1_555 1_555
C20 C19 1.398 1_555 1_555
C21 C20 1.361 1_555 1_555
C22 C1 1.428 1_555 1_555
C23 C1 1.503 1_555 1_555
C24 C23 1.392 1_555 1_555
C25 C24 1.379 1_555 1_555
C26 C25 1.386 1_555 1_555
C27 C26 1.369 1_555 1_555
C28 C23 1.397 1_555 1_555
C29 C7 1.511 1_555 1_555
C30 C10 1.512 1_555 1_555
C31 C16 1.487 1_555 1_555
C32 C31 1.394 1_555 1_555
C33 C32 1.385 1_555 1_555
C34 C33 1.372 1_555 1_555
C35 C34 1.385 1_555 1_555
C36 C31 1.379 1_555 1_555
H1 C4 0.960 1_555 1_555
H2 C5 0.960 1_555 1_555
H3 C6 0.959 1_555 1_555
H4 C11 0.959 1_555 1_555
H5 C12 0.960 1_555 1_555
H6 C13 0.959 1_555 1_555
H7 C18 0.960 1_555 1_555
H8 C19 0.960 1_555 1_555
H9 C20 0.959 1_555 1_555
H10 C21 0.959 1_555 1_555
H11 C24 0.959 1_555 1_555
H12 C25 0.960 1_555 1_555
H13 C26 0.960 1_555 1_555
H14 C27 0.960 1_555 1_555
H15 C28 0.960 1_555 1_555
H16 C29 0.960 1_555 1_555
H17 C29 0.959 1_555 1_555
H18 C29 0.961 1_555 1_555
H19 C30 0.960 1_555 1_555
H20 C30 0.960 1_555 1_555
H21 C30 0.960 1_555 1_555
H22 C32 0.961 1_555 1_555
H23 C33 0.960 1_555 1_555
H24 C34 0.960 1_555 1_555
H25 C35 0.960 1_555 1_555
H26 C36 0.960 1_555 1_555
C13 C14 1.402 1_555 1_555
C14 C15 1.493 1_555 1_555
C17 C22 1.419 1_555 1_555
C21 C22 1.426 1_555 1_555
C27 C28 1.375 1_555 1_555
C35 C36 1.374 1_555 1_555
#END
