
#######################################################################
#
#                 Cambridge Crystallographic Data Centre
#                                CCDC
#
#######################################################################
#
# If this CIF has been generated from an entry in the Cambridge
# Structural Database, then it will include bibliographic, chemical,
# crystal, experimental, refinement or atomic coordinate data resulting
# from the CCDC's data processing and validation procedures.
#
#######################################################################

data_CSD_CIF_WONHEN
_audit_creation_date 2009-04-28
_audit_creation_method CSD-ConQuest-V1
_database_code_CSD WONHEN
_database_code_depnum_ccdc_archive 'CCDC 697839'
_chemical_formula_sum 'C32 H30'
_chemical_formula_moiety
;
C32 H30
;
_journal_coden_Cambridge 16
_journal_volume 64
_journal_year 2008
_journal_page_first 11370
_journal_name_full 'Tetrahedron '
loop_
_publ_author_name
"J.L.Ormsby"
"T.D.Black"
"C.L.Hilton"
"Bharat"
"B.T.King"
_chemical_name_systematic
;
1,2,5,6,9,10,12,13-Octamethyldibenzo[fg,op]tetracene
;
_chemical_melting_point 528.15
_cell_volume   2203.123
_exptl_crystal_colour 'yellow'
_exptl_crystal_density_diffrn 1.25
_exptl_special_details
;
Melts with decomposition.

;
_exptl_crystal_description 'blade'
_exptl_crystal_preparation 'chloroform'
_diffrn_ambient_temperature 100
#These two values have been output from a single CSD field.
_refine_ls_R_factor_gt 0.0515
_refine_ls_wR_factor_gt 0.0515
_symmetry_cell_setting monoclinic
_symmetry_space_group_name_H-M 'P 21/c'
_symmetry_Int_Tables_number 14
loop_
_symmetry_equiv_pos_site_id
_symmetry_equiv_pos_as_xyz
1 x,y,z
2 -x,1/2+y,1/2-z
3 -x,-y,-z
4 x,-1/2-y,-1/2+z
_cell_length_a 7.790(3)
_cell_length_b 22.917(9)
_cell_length_c 12.561(5)
_cell_angle_alpha 90
_cell_angle_beta 100.744(11)
_cell_angle_gamma 90
_cell_formula_units_Z 4
loop_
_atom_type_symbol
_atom_type_radius_bond
C 0.68
H 0.23
loop_
_atom_site_label
_atom_site_type_symbol
_atom_site_fract_x
_atom_site_fract_y
_atom_site_fract_z
C1 C 0.9054(5) 0.2111(2) 0.3173(3)
C2 C 0.8752(5) 0.26621(18) 0.2681(3)
C3 C 0.7732(5) 0.27052(18) 0.1665(3)
H1 H 0.74530 0.30830 0.13710
C4 C 0.5413(5) 0.28093(17) -0.0510(3)
H2 H 0.56510 0.31520 -0.00820
C5 C 0.4450(5) 0.28627(19) -0.1536(3)
C6 C 0.4040(5) 0.23555(19) -0.2170(3)
C7 C 0.4671(5) 0.18281(18) -0.1728(3)
H3 H 0.43960 0.14860 -0.21540
C8 C 0.6356(5) 0.07068(18) -0.0915(3)
H4 H 0.58630 0.07370 -0.16640
C9 C 0.7037(5) 0.01776(18) -0.0516(3)
C10 C 0.7654(5) 0.01122(17) 0.0592(3)
C11 C 0.7407(5) 0.00197(19) 0.2985(3)
H5 H 0.70910 -0.03150 0.25450
C12 C 0.7462(5) -0.00282(19) 0.4086(3)
C13 C 0.7914(5) 0.0457(2) 0.4745(3)
C14 C 0.8232(5) 0.09723(19) 0.4258(3)
H6 H 0.84960 0.13060 0.47060
C15 C 0.8289(5) 0.16134(19) 0.2619(3)
C16 C 0.7442(5) 0.16640(18) 0.1528(3)
C17 C 0.7081(5) 0.22161(19) 0.1040(3)
C18 C 0.6074(5) 0.22703(18) -0.0054(3)
C19 C 0.5692(5) 0.17669(18) -0.0691(3)
C20 C 0.6361(5) 0.12016(18) -0.0260(3)
C21 C 0.7055(5) 0.11456(18) 0.0847(3)
C22 C 0.7539(5) 0.05845(19) 0.1297(3)
C23 C 0.7797(5) 0.05399(18) 0.2480(3)
C24 C 0.8193(5) 0.10385(18) 0.3138(3)
C25 C 1.0306(5) 0.20934(17) 0.4244(3)
H7 H 1.12640 0.23680 0.42280
H8 H 1.07790 0.16980 0.43720
H9 H 0.96880 0.22020 0.48260
C26 C 0.9530(5) 0.32065(16) 0.3255(3)
H10 H 1.07910 0.32140 0.32660
H11 H 0.93190 0.32070 0.40000
H12 H 0.89850 0.35510 0.28720
C27 C 0.3817(5) 0.34535(16) -0.1974(3)
H13 H 0.42710 0.37550 -0.14440
H14 H 0.25370 0.34610 -0.21120
H15 H 0.42330 0.35270 -0.26520
C28 C 0.2929(5) 0.23964(17) -0.3276(3)
H16 H 0.27350 0.20050 -0.35880
H17 H 0.35220 0.26380 -0.37410
H18 H 0.18030 0.25740 -0.32230
C29 C 0.7107(5) -0.03235(16) -0.1291(3)
H19 H 0.64380 -0.02220 -0.20070
H20 H 0.66050 -0.06730 -0.10210
H21 H 0.83250 -0.04000 -0.13470
C30 C 0.8525(5) -0.04566(16) 0.0967(3)
H22 H 0.76320 -0.07520 0.10140
H23 H 0.92650 -0.04040 0.16820
H24 H 0.92460 -0.05850 0.04500
C31 C 0.7013(6) -0.06064(17) 0.4559(3)
H25 H 0.66900 -0.08910 0.39740
H26 H 0.60300 -0.05510 0.49350
H27 H 0.80290 -0.07500 0.50730
C32 C 0.7979(6) 0.04246(18) 0.5949(3)
H28 H 0.83570 0.08020 0.62800
H29 H 0.88070 0.01210 0.62610
H30 H 0.68150 0.03300 0.60900
loop_
_geom_bond_atom_site_label_1
_geom_bond_atom_site_label_2
_geom_bond_distance
_geom_bond_site_symmetry_1
_geom_bond_site_symmetry_2
C1 C2 1.406 1_555 1_555
C2 C3 1.375 1_555 1_555
C3 H1 0.950 1_555 1_555
C4 H2 0.950 1_555 1_555
C5 C4 1.370 1_555 1_555
C6 C5 1.412 1_555 1_555
C7 C6 1.382 1_555 1_555
H3 C7 0.951 1_555 1_555
C8 H4 0.950 1_555 1_555
C9 C8 1.380 1_555 1_555
C10 C9 1.393 1_555 1_555
C11 H5 0.951 1_555 1_555
C12 C11 1.380 1_555 1_555
C13 C12 1.392 1_555 1_555
C14 C13 1.374 1_555 1_555
H6 C14 0.949 1_555 1_555
C15 C1 1.409 1_555 1_555
C16 C15 1.411 1_555 1_555
C17 C3 1.408 1_555 1_555
C18 C4 1.417 1_555 1_555
C19 C7 1.401 1_555 1_555
C20 C8 1.401 1_555 1_555
C21 C16 1.462 1_555 1_555
C22 C10 1.412 1_555 1_555
C23 C11 1.410 1_555 1_555
C24 C14 1.410 1_555 1_555
C25 C1 1.508 1_555 1_555
H7 C25 0.979 1_555 1_555
H8 C25 0.980 1_555 1_555
H9 C25 0.979 1_555 1_555
C26 C2 1.510 1_555 1_555
H10 C26 0.980 1_555 1_555
H11 C26 0.980 1_555 1_555
H12 C26 0.979 1_555 1_555
C27 C5 1.509 1_555 1_555
H13 C27 0.979 1_555 1_555
H14 C27 0.980 1_555 1_555
H15 C27 0.981 1_555 1_555
C28 C6 1.497 1_555 1_555
H16 C28 0.979 1_555 1_555
H17 C28 0.981 1_555 1_555
H18 C28 0.980 1_555 1_555
C29 C9 1.513 1_555 1_555
H19 C29 0.980 1_555 1_555
H20 C29 0.979 1_555 1_555
H21 C29 0.980 1_555 1_555
C30 C10 1.504 1_555 1_555
H22 C30 0.980 1_555 1_555
H23 C30 0.980 1_555 1_555
H24 C30 0.980 1_555 1_555
C31 C12 1.519 1_555 1_555
H25 C31 0.980 1_555 1_555
H26 C31 0.980 1_555 1_555
H27 C31 0.980 1_555 1_555
C32 C13 1.506 1_555 1_555
H28 C32 0.981 1_555 1_555
H29 C32 0.980 1_555 1_555
H30 C32 0.980 1_555 1_555
C15 C24 1.478 1_555 1_555
C16 C17 1.411 1_555 1_555
C17 C18 1.455 1_555 1_555
C18 C19 1.404 1_555 1_555
C19 C20 1.462 1_555 1_555
C20 C21 1.401 1_555 1_555
C21 C22 1.427 1_555 1_555
C22 C23 1.465 1_555 1_555
C23 C24 1.410 1_555 1_555
#END
