
#######################################################################
#
#                 Cambridge Crystallographic Data Centre
#                                CCDC
#
#######################################################################
#
# If this CIF has been generated from an entry in the Cambridge
# Structural Database, then it will include bibliographic, chemical,
# crystal, experimental, refinement or atomic coordinate data resulting
# from the CCDC's data processing and validation procedures.
#
#######################################################################

data_CSD_CIF_WUPJOI
_audit_creation_date 2015-10-09
_audit_creation_method CSD-ConQuest-V1
_database_code_CSD WUPJOI
_database_code_depnum_ccdc_archive 'CCDC 1408042'
_chemical_formula_sum 'C40 H34'
_chemical_formula_moiety
;
C40 H34
;
_journal_coden_Cambridge 179
_journal_volume 54
_journal_year 2015
_journal_page_first 14412
_journal_name_full 'Angew.Chem.,Int.Ed. '
loop_
_publ_author_name
"Xueliang Shi"
"Weixiang Kueh"
"Bin Zheng"
"Kuo-Wei Huang"
"Chunyan Chi"
_chemical_name_systematic
;
6,13-dimesitylpentacene
;
_cell_volume   5786.702
_exptl_crystal_colour 'red'
_exptl_crystal_density_diffrn 1.182
_exptl_special_details
;
Air-sensitive, Oxygen-sensitive, Light-sensitive, Photo-sensitive

;
_exptl_crystal_description 'Block'
_diffrn_ambient_temperature 100
#These two values have been output from a single CSD field.
_refine_ls_R_factor_gt 0.0558
_refine_ls_wR_factor_gt 0.0558
_symmetry_cell_setting tetragonal
_symmetry_space_group_name_H-M 'I 41/a'
_symmetry_Int_Tables_number 88
loop_
_symmetry_equiv_pos_site_id
_symmetry_equiv_pos_as_xyz
1 x,y,z
2 1/2-x,-y,1/2+z
3 3/4-y,1/4+x,1/4+z
4 3/4+y,3/4-x,3/4+z
5 1/2+x,1/2+y,1/2+z
6 -x,1/2-y,z
7 1/4-y,3/4+x,3/4+z
8 1/4+y,1/4-x,1/4+z
9 -x,-y,-z
10 -1/2+x,y,-1/2-z
11 -3/4+y,-1/4-x,-1/4-z
12 -3/4-y,-3/4+x,-3/4-z
13 -1/2-x,-1/2-y,-1/2-z
14 x,-1/2+y,-z
15 -1/4+y,-3/4-x,-3/4-z
16 -1/4-y,-1/4+x,-1/4-z
_cell_length_a 21.8964(12)
_cell_length_b 21.8964(12)
_cell_length_c 12.0694(9)
_cell_angle_alpha 90
_cell_angle_beta 90
_cell_angle_gamma 90
_cell_formula_units_Z 8
loop_
_atom_type_symbol
_atom_type_radius_bond
C 0.68
H 0.23
loop_
_atom_site_label
_atom_site_type_symbol
_atom_site_fract_x
_atom_site_fract_y
_atom_site_fract_z
C1 C 0.53981(6) 0.91633(6) 0.37535(12)
C2 C 0.53560(8) 0.98172(6) 0.37572(14)
H1 H 0.49680 1.00070 0.36920
C3 C 0.58640(8) 1.01665(7) 0.38528(17)
H2 H 0.58270 1.05990 0.38490
C4 C 0.64493(8) 0.98973(7) 0.39586(16)
H3 H 0.67980 1.01510 0.40420
C5 C 0.65176(7) 0.92815(7) 0.39428(14)
H4 H 0.69140 0.91080 0.40110
C6 C 0.59957(6) 0.88893(6) 0.38236(11)
C7 C 0.60480(6) 0.82588(6) 0.37969(12)
H5 H 0.64430 0.80800 0.38260
C8 C 0.55310(6) 0.78718(6) 0.37270(11)
C9 C 0.49285(6) 0.81456(6) 0.36996(11)
C10 C 0.48856(6) 0.87921(6) 0.37009(11)
H6 H 0.44930 0.89770 0.36650
C11 C 0.55961(6) 0.72302(6) 0.37092(11)
C12 C 0.62213(6) 0.69550(6) 0.37581(11)
C13 C 0.65812(6) 0.69141(6) 0.28019(13)
C14 C 0.71611(6) 0.66514(7) 0.28827(14)
H7 H 0.74100 0.66310 0.22400
C15 C 0.73840(7) 0.64198(7) 0.38712(14)
C16 C 0.70256(6) 0.64804(6) 0.48167(14)
H8 H 0.71750 0.63310 0.55040
C17 C 0.64511(6) 0.67563(5) 0.47778(12)
C18 C 0.63578(8) 0.71482(7) 0.16996(14)
H9 H 0.63350 0.75950 0.17200
H10 H 0.59520 0.69800 0.15470
H11 H 0.66410 0.70210 0.11150
C19 C 0.79980(8) 0.61096(9) 0.39330(19)
H12 H 0.81650 0.61550 0.46820
H13 H 0.82770 0.62980 0.33970
H14 H 0.79510 0.56750 0.37610
C20 C 0.60997(7) 0.68535(7) 0.58313(13)
H15 H 0.60560 0.72920 0.59700
H16 H 0.63190 0.66640 0.64490
H17 H 0.56940 0.66680 0.57620
C1E C 0.46019(6) 0.58367(6) 0.37535(12)
C2E C 0.46440(8) 0.51828(6) 0.37572(14)
H1E H 0.50320 0.49930 0.36920
C3E C 0.41360(8) 0.48335(7) 0.38528(17)
H2E H 0.41730 0.44010 0.38490
C4E C 0.35507(8) 0.51027(7) 0.39586(16)
H3E H 0.32020 0.48490 0.40420
C5E C 0.34824(7) 0.57185(7) 0.39428(14)
H4E H 0.30860 0.58920 0.40110
C6E C 0.40043(6) 0.61107(6) 0.38236(11)
C7E C 0.39520(6) 0.67412(6) 0.37969(12)
H5E H 0.35570 0.69200 0.38260
C8E C 0.44690(6) 0.71282(6) 0.37270(11)
C9E C 0.50715(6) 0.68544(6) 0.36996(11)
C10E C 0.51144(6) 0.62079(6) 0.37009(11)
H6E H 0.55070 0.60230 0.36650
C11E C 0.44039(6) 0.77698(6) 0.37092(11)
C12E C 0.37787(6) 0.80450(6) 0.37581(11)
C13E C 0.34188(6) 0.80859(6) 0.28019(13)
C14E C 0.28389(6) 0.83486(7) 0.28827(14)
H7E H 0.25900 0.83690 0.22400
C15E C 0.26160(7) 0.85802(7) 0.38712(14)
C16E C 0.29744(6) 0.85196(6) 0.48167(14)
H8E H 0.28250 0.86690 0.55040
C17E C 0.35489(6) 0.82437(5) 0.47778(12)
C18E C 0.36422(8) 0.78518(7) 0.16996(14)
H9E H 0.36650 0.74050 0.17200
H10E H 0.40480 0.80200 0.15470
H11E H 0.33590 0.79790 0.11150
C19E C 0.20020(8) 0.88904(9) 0.39330(19)
H12E H 0.18350 0.88450 0.46820
H13E H 0.17230 0.87020 0.33970
H14E H 0.20490 0.93250 0.37610
C20E C 0.39003(7) 0.81465(7) 0.58313(13)
H15E H 0.39440 0.77080 0.59700
H16E H 0.36810 0.83360 0.64490
H17E H 0.43060 0.83320 0.57620
loop_
_geom_bond_atom_site_label_1
_geom_bond_atom_site_label_2
_geom_bond_distance
_geom_bond_site_symmetry_1
_geom_bond_site_symmetry_2
C1 C2 1.435 1_555 1_555
C2 H1 0.949 1_555 1_555
C3 C2 1.355 1_555 1_555
H2 C3 0.950 1_555 1_555
C4 C3 1.416 1_555 1_555
H3 C4 0.950 1_555 1_555
C5 C4 1.357 1_555 1_555
H4 C5 0.951 1_555 1_555
C6 C1 1.442 1_555 1_555
C7 C6 1.386 1_555 1_555
H5 C7 0.950 1_555 1_555
C8 C7 1.417 1_555 1_555
C9 C8 1.449 1_555 1_555
C10 C1 1.387 1_555 1_555
H6 C10 0.951 1_555 1_555
C11 C8 1.412 1_555 1_555
C12 C11 1.497 1_555 1_555
C13 C12 1.400 1_555 1_555
C14 C13 1.397 1_555 1_555
H7 C14 0.949 1_555 1_555
C15 C14 1.385 1_555 1_555
C16 C15 1.391 1_555 1_555
H8 C16 0.950 1_555 1_555
C17 C12 1.399 1_555 1_555
C18 C13 1.507 1_555 1_555
H9 C18 0.980 1_555 1_555
H10 C18 0.979 1_555 1_555
H11 C18 0.980 1_555 1_555
C19 C15 1.508 1_555 1_555
H12 C19 0.980 1_555 1_555
H13 C19 0.981 1_555 1_555
H14 C19 0.979 1_555 1_555
C20 C17 1.501 1_555 1_555
H15 C20 0.979 1_555 1_555
H16 C20 0.979 1_555 1_555
H17 C20 0.980 1_555 1_555
C1E C2E 1.435 1_555 1_555
C2E H1E 0.949 1_555 1_555
C3E C2E 1.355 1_555 1_555
H2E C3E 0.950 1_555 1_555
C4E C3E 1.416 1_555 1_555
H3E C4E 0.950 1_555 1_555
C5E C4E 1.357 1_555 1_555
H4E C5E 0.951 1_555 1_555
C6E C1E 1.442 1_555 1_555
C7E C6E 1.386 1_555 1_555
H5E C7E 0.950 1_555 1_555
C8E C7E 1.417 1_555 1_555
C9E C11 1.413 1_555 1_555
C10E C1E 1.387 1_555 1_555
H6E C10E 0.951 1_555 1_555
C11E C9 1.413 1_555 1_555
C12E C11E 1.497 1_555 1_555
C13E C12E 1.400 1_555 1_555
C14E C13E 1.397 1_555 1_555
H7E C14E 0.949 1_555 1_555
C15E C14E 1.385 1_555 1_555
C16E C15E 1.391 1_555 1_555
H8E C16E 0.950 1_555 1_555
C17E C12E 1.399 1_555 1_555
C18E C13E 1.507 1_555 1_555
H9E C18E 0.980 1_555 1_555
H10E C18E 0.979 1_555 1_555
H11E C18E 0.980 1_555 1_555
C19E C15E 1.508 1_555 1_555
H12E C19E 0.980 1_555 1_555
H13E C19E 0.981 1_555 1_555
H14E C19E 0.979 1_555 1_555
C20E C17E 1.501 1_555 1_555
H15E C20E 0.979 1_555 1_555
H16E C20E 0.979 1_555 1_555
H17E C20E 0.980 1_555 1_555
C5 C6 1.437 1_555 1_555
C9 C10 1.419 1_555 1_555
C16 C17 1.396 1_555 1_555
C5E C6E 1.437 1_555 1_555
C8E C9E 1.449 1_555 1_555
C8E C11E 1.412 1_555 1_555
C9E C10E 1.419 1_555 1_555
C16E C17E 1.396 1_555 1_555
#END
