
#######################################################################
#
#                 Cambridge Crystallographic Data Centre
#                                CCDC
#
#######################################################################
#
# If this CIF has been generated from an entry in the Cambridge
# Structural Database, then it will include bibliographic, chemical,
# crystal, experimental, refinement or atomic coordinate data resulting
# from the CCDC's data processing and validation procedures.
#
#######################################################################

data_CSD_CIF_XAYFOS01
_audit_creation_date 2001-02-22
_audit_creation_method CSD-ConQuest-V1
_database_code_CSD XAYFOS01
_database_code_depnum_ccdc_archive 'CCDC 153906'
_chemical_formula_sum 'C16 H12'
_chemical_formula_moiety
;
C16 H12
;
_journal_coeditor_code "IUCr OB1035"
_journal_coden_Cambridge 591
_journal_volume 56
_journal_year 2000
_journal_page_first 1364
_journal_name_full 'Acta Crystallogr.,Sect.C:Cryst.Struct.Commun. '
loop_
_publ_author_name
"N.Yasuda"
"H.Uekusa"
"Y.Ohashi"
_chemical_name_systematic
;
9-Vinylanthracene
;
_chemical_melting_point 338
_cell_volume   1069.477
_exptl_crystal_colour 'yellow'
_exptl_crystal_density_diffrn 1.269
_exptl_crystal_description 'prism'
_exptl_crystal_preparation 'n-hexane'
_diffrn_ambient_temperature 123
#These two values have been output from a single CSD field.
_refine_ls_R_factor_gt 0.0412
_refine_ls_wR_factor_gt 0.0412
_symmetry_cell_setting monoclinic
_symmetry_space_group_name_H-M 'P 21/c'
_symmetry_Int_Tables_number 14
loop_
_symmetry_equiv_pos_site_id
_symmetry_equiv_pos_as_xyz
1 x,y,z
2 -x,1/2+y,1/2-z
3 -x,-y,-z
4 x,-1/2-y,-1/2+z
_cell_length_a 9.3213(3)
_cell_length_b 13.6798(4)
_cell_length_c 8.8957(3)
_cell_angle_alpha 90
_cell_angle_beta 109.467(1)
_cell_angle_gamma 90
_cell_formula_units_Z 4
loop_
_atom_type_symbol
_atom_type_radius_bond
C 0.68
H 0.23
loop_
_atom_site_label
_atom_site_type_symbol
_atom_site_fract_x
_atom_site_fract_y
_atom_site_fract_z
C1 C 0.00703(11) 0.84752(7) 0.04917(11)
C2 C 0.09567(11) 0.91479(7) 0.16326(11)
C3 C 0.02333(11) 0.97660(7) 0.24759(11)
C4 C -0.13356(11) 0.97049(7) 0.21476(11)
H1 H -0.1818(14) 1.0139(10) 0.2736(15)
C5 C -0.22284(11) 0.90650(7) 0.09986(11)
C6 C -0.15251(11) 0.84437(7) 0.01435(11)
C7 C 0.07801(11) 0.77923(7) -0.03495(12)
H2 H 0.0362(14) 0.7799(9) -0.1535(16)
C8 C 0.18792(12) 0.71643(8) 0.03694(13)
H3 H 0.2284(15) 0.7129(10) 0.1544(17)
H4 H 0.2292(15) 0.671(1) -0.0237(16)
C9 C 0.25644(11) 0.92662(7) 0.19731(11)
H5 H 0.3070(14) 0.8881(10) 0.1378(15)
C10 C 0.33823(11) 0.99190(8) 0.30849(12)
H6 H 0.4481(15) 1.0015(10) 0.3274(15)
C11 C 0.26629(12) 1.05084(8) 0.39421(12)
H7 H 0.3270(15) 1.0978(10) 0.4729(16)
C12 C 0.11382(12) 1.04364(7) 0.36417(11)
H8 H 0.0618(14) 1.0853(10) 0.4200(16)
C13 C -0.24862(11) 0.78011(7) -0.10311(12)
H9 H -0.2028(14) 0.7375(10) -0.1619(16)
C14 C -0.40229(12) 0.77840(8) -0.13440(13)
H10 H -0.4669(15) 0.7358(10) -0.2178(16)
C15 C -0.47103(12) 0.83928(8) -0.04860(13)
H11 H -0.5807(16) 0.8363(10) -0.0717(16)
C16 C -0.38401(11) 0.90093(8) 0.06536(12)
H12 H -0.4304(15) 0.9431(10) 0.1245(16)
loop_
_geom_bond_atom_site_label_1
_geom_bond_atom_site_label_2
_geom_bond_distance
_geom_bond_site_symmetry_1
_geom_bond_site_symmetry_2
C1 C2 1.414 1_555 1_555
C2 C3 1.439 1_555 1_555
C3 C4 1.395 1_555 1_555
C4 H1 0.993 1_555 1_555
C5 C4 1.392 1_555 1_555
C6 C1 1.415 1_555 1_555
C7 C1 1.483 1_555 1_555
H2 C7 0.995 1_555 1_555
C8 C7 1.327 1_555 1_555
H3 C8 0.987 1_555 1_555
H4 C8 0.982 1_555 1_555
C9 C2 1.436 1_555 1_555
H5 C9 0.973 1_555 1_555
C10 C9 1.362 1_555 1_555
H6 C10 0.990 1_555 1_555
C11 C10 1.422 1_555 1_555
H7 C11 0.979 1_555 1_555
C12 C3 1.430 1_555 1_555
H8 C12 0.983 1_555 1_555
C13 C6 1.429 1_555 1_555
H9 C13 0.972 1_555 1_555
C14 C13 1.365 1_555 1_555
H10 C14 0.977 1_555 1_555
C15 C14 1.419 1_555 1_555
H11 C15 0.974 1_555 1_555
C16 C5 1.432 1_555 1_555
H12 C16 0.974 1_555 1_555
C5 C6 1.436 1_555 1_555
C11 C12 1.359 1_555 1_555
C15 C16 1.360 1_555 1_555
#END
