
#######################################################################
#
#                 Cambridge Crystallographic Data Centre
#                                CCDC
#
#######################################################################
#
# If this CIF has been generated from an entry in the Cambridge
# Structural Database, then it will include bibliographic, chemical,
# crystal, experimental, refinement or atomic coordinate data resulting
# from the CCDC's data processing and validation procedures.
#
#######################################################################

data_CSD_CIF_XAYFOS
_audit_creation_date 2001-02-22
_audit_creation_method CSD-ConQuest-V1
_database_code_CSD XAYFOS
_database_code_depnum_ccdc_archive 'CCDC 153907'
_chemical_formula_sum 'C16 H12'
_chemical_formula_moiety
;
C16 H12
;
_journal_coeditor_code "IUCr OB1035"
_journal_coden_Cambridge 591
_journal_volume 56
_journal_year 2000
_journal_page_first 1364
_journal_name_full 'Acta Crystallogr.,Sect.C:Cryst.Struct.Commun. '
loop_
_publ_author_name
"N.Yasuda"
"H.Uekusa"
"Y.Ohashi"
_chemical_name_systematic
;
9-Vinylanthracene
;
_chemical_melting_point 338
_cell_volume   1107.697
_exptl_crystal_colour 'yellow'
_exptl_crystal_density_diffrn 1.225
_exptl_crystal_description 'prism'
_exptl_crystal_preparation 'n-hexane'
_diffrn_ambient_temperature ?
_diffrn_special_details
;
The study was carried out at room temperature,in the range 283-303K

;
#These two values have been output from a single CSD field.
_refine_ls_R_factor_gt 0.0556
_refine_ls_wR_factor_gt 0.0556
_symmetry_cell_setting monoclinic
_symmetry_space_group_name_H-M 'P 21/c'
_symmetry_Int_Tables_number 14
loop_
_symmetry_equiv_pos_site_id
_symmetry_equiv_pos_as_xyz
1 x,y,z
2 -x,1/2+y,1/2-z
3 -x,-y,-z
4 x,-1/2-y,-1/2+z
_cell_length_a 9.3873(5)
_cell_length_b 13.9756(10)
_cell_length_c 8.9889(7)
_cell_angle_alpha 90
_cell_angle_beta 110.066(1)
_cell_angle_gamma 90
_cell_formula_units_Z 4
loop_
_atom_type_symbol
_atom_type_radius_bond
C 0.68
H 0.23
loop_
_atom_site_label
_atom_site_type_symbol
_atom_site_fract_x
_atom_site_fract_y
_atom_site_fract_z
C1 C 0.00702(15) 0.84764(9) 0.05231(15)
C2 C 0.09515(16) 0.91436(9) 0.16424(15)
C3 C 0.02277(17) 0.97528(10) 0.24666(16)
C4 C -0.13200(18) 0.96879(11) 0.21364(17)
H1 H -0.1780(18) 1.0117(13) 0.270(2)
C5 C -0.22145(16) 0.90549(10) 0.10070(16)
C6 C -0.15131(16) 0.84395(9) 0.01761(16)
C7 C 0.07746(17) 0.78048(11) -0.03034(19)
H2 H 0.0357(19) 0.7839(12) -0.149(2)
C8 C 0.18362(19) 0.71803(12) 0.0388(2)
H3 H 0.226(2) 0.7160(14) 0.160(3)
H4 H 0.223(2) 0.6742(15) -0.021(2)
C9 C 0.25412(17) 0.92666(11) 0.19802(17)
H5 H 0.3049(19) 0.8860(13) 0.141(2)
C10 C 0.33499(19) 0.99125(12) 0.30695(19)
H6 H 0.443(2) 1.0013(14) 0.324(2)
C11 C 0.2637(2) 1.04895(12) 0.3903(2)
H7 H 0.323(2) 1.0932(15) 0.463(2)
C12 C 0.1137(2) 1.04172(11) 0.36089(18)
H8 H 0.062(2) 1.0826(13) 0.415(2)
C13 C -0.24718(18) 0.78051(11) -0.09750(19)
H9 H -0.199(2) 0.7372(13) -0.151(2)
C14 C -0.3991(2) 0.77874(13) -0.1286(2)
H10 H -0.462(2) 0.7370(15) -0.211(2)
C15 C -0.4670(2) 0.83883(14) -0.0457(2)
H11 H -0.576(2) 0.8356(15) -0.072(2)
C16 C -0.38105(18) 0.89963(13) 0.0657(2)
H12 H -0.426(2) 0.9435(14) 0.124(2)
loop_
_geom_bond_atom_site_label_1
_geom_bond_atom_site_label_2
_geom_bond_distance
_geom_bond_site_symmetry_1
_geom_bond_site_symmetry_2
C1 C2 1.412 1_555 1_555
C2 C3 1.443 1_555 1_555
C3 C4 1.382 1_555 1_555
C4 H1 0.976 1_555 1_555
C5 C4 1.390 1_555 1_555
C6 C1 1.411 1_555 1_555
C7 C1 1.486 1_555 1_555
H2 C7 1.003 1_555 1_555
C8 C7 1.310 1_555 1_555
H3 C8 1.024 1_555 1_555
H4 C8 0.968 1_555 1_555
C9 C2 1.428 1_555 1_555
H5 C9 0.990 1_555 1_555
C10 C9 1.356 1_555 1_555
H6 C10 0.982 1_555 1_555
C11 C10 1.415 1_555 1_555
H7 C11 0.933 1_555 1_555
C12 C3 1.430 1_555 1_555
H8 C12 0.980 1_555 1_555
C13 C6 1.424 1_555 1_555
H9 C13 0.975 1_555 1_555
C14 C13 1.356 1_555 1_555
H10 C14 0.968 1_555 1_555
C15 C14 1.412 1_555 1_555
H11 C15 0.969 1_555 1_555
C16 C5 1.424 1_555 1_555
H12 C16 0.990 1_555 1_555
C5 C6 1.438 1_555 1_555
C11 C12 1.344 1_555 1_555
C15 C16 1.350 1_555 1_555
#END
