
#######################################################################
#
#                 Cambridge Crystallographic Data Centre
#                                CCDC
#
#######################################################################
#
# If this CIF has been generated from an entry in the Cambridge
# Structural Database, then it will include bibliographic, chemical,
# crystal, experimental, refinement or atomic coordinate data resulting
# from the CCDC's data processing and validation procedures.
#
#######################################################################

data_CSD_CIF_XECJIZ01
_audit_creation_date 2015-09-17
_audit_creation_method CSD-ConQuest-V1
_database_code_CSD XECJIZ01
_database_code_depnum_ccdc_archive 'CCDC 1425406'
_chemical_formula_sum 'C30 H20'
_chemical_formula_moiety
;
C30 H20
;
_journal_coden_Cambridge 4
_journal_volume 134
_journal_year 2012
_journal_page_first 6388
_journal_name_full 'J.Am.Chem.Soc. '
loop_
_publ_author_name
"S.T.Roberts"
"R.Eric McAnally"
"J.N.Mastron"
"D.H.Webber"
"M.T.Whited"
"R.L.Brutchey"
"M.E.Thompson"
"S.E.Bradforth"
_chemical_name_systematic
;
5,12-Diphenyltetracene
;
_cell_volume    972.936
_exptl_crystal_colour 'orange'
_exptl_crystal_density_diffrn 1.299
_exptl_crystal_description 'prism'
_diffrn_ambient_temperature 153
#These two values have been output from a single CSD field.
_refine_ls_R_factor_gt 0.041
_refine_ls_wR_factor_gt 0.041
_symmetry_cell_setting triclinic
_symmetry_space_group_name_H-M 'P -1'
_symmetry_Int_Tables_number 2
loop_
_symmetry_equiv_pos_site_id
_symmetry_equiv_pos_as_xyz
1 x,y,z
2 -x,-y,-z
_cell_length_a 8.095(3)
_cell_length_b 11.075(3)
_cell_length_c 11.901(4)
_cell_angle_alpha 100.436(5)
_cell_angle_beta 99.633(5)
_cell_angle_gamma 107.409(5)
_cell_formula_units_Z 2
loop_
_atom_type_symbol
_atom_type_radius_bond
C 0.68
H 0.23
loop_
_atom_site_label
_atom_site_type_symbol
_atom_site_fract_x
_atom_site_fract_y
_atom_site_fract_z
C1 C 0.2720(2) 0.61199(15) 0.09876(14)
C2 C 0.2450(2) 0.48960(15) 0.13207(14)
C3 C 0.2461(2) 0.38489(15) -0.06841(14)
C4 C 0.2884(2) 0.72599(15) 0.18476(14)
C5 C 0.2265(2) 0.48079(15) 0.24662(14)
C6 C 0.2666(2) 0.71601(15) 0.29728(14)
C7 C 0.2319(2) 0.59228(15) 0.32839(14)
C8 C 0.1999(2) 0.35535(15) 0.28266(14)
C9 C 0.3281(2) 0.85556(15) 0.15465(14)
C10 C 0.2372(2) 0.37960(16) 0.04586(14)
C11 C 0.2688(2) 0.50547(15) -0.10193(14)
C12 C 0.2719(2) 0.82715(16) 0.38451(15)
C13 C 0.2836(2) 0.61571(16) -0.01709(15)
C14 C 0.2370(2) 0.81455(18) 0.48995(16)
C15 C 0.4928(2) 0.95302(16) 0.20455(16)
C16 C 0.1955(2) 0.58528(17) 0.44119(15)
C17 C 0.2756(2) 0.50868(18) -0.21987(15)
C18 C 0.3311(3) 0.33941(17) 0.36368(15)
C19 C 0.2023(2) 0.88302(17) 0.07918(15)
C20 C 0.0397(2) 0.25083(16) 0.23554(15)
C21 C 0.4030(3) 1.10058(17) 0.10390(16)
C22 C 0.2371(2) 0.27904(18) -0.26812(16)
C23 C 0.5287(3) 1.07438(18) 0.17928(17)
C24 C 0.2395(3) 1.00438(17) 0.05270(16)
C25 C 0.2317(2) 0.27218(17) -0.15619(16)
C26 C 0.1427(3) 0.12237(19) 0.35489(18)
C27 C 0.1958(2) 0.69209(18) 0.51874(16)
C28 C 0.0127(3) 0.13545(18) 0.27216(17)
C29 C 0.2599(2) 0.39899(18) -0.30126(16)
C30 C 0.3041(3) 0.22438(19) 0.40115(17)
H1 H 0.2220(17) 0.2931(12) 0.0707(11)
H2 H 0.2990(17) 0.9132(13) 0.3625(11)
H3 H 0.1702(18) 0.5012(14) 0.4645(12)
H4 H 0.2933(18) 0.5921(13) -0.2424(12)
H5 H 0.3028(17) 0.6984(12) -0.0396(11)
H6 H 0.4272(19) 1.1868(14) 0.0836(12)
H7 H 0.4538(19) 0.4158(14) 0.4036(12)
H8 H -0.0568(19) 0.2618(13) 0.1721(12)
H9 H 0.0822(19) 0.8108(13) 0.0404(12)
H10 H 0.2215(18) 0.1885(13) -0.1292(12)
H11 H 0.5809(19) 0.9346(14) 0.2621(13)
H12 H 0.2631(17) 0.4039(13) -0.3907(12)
H13 H 0.2386(19) 0.8973(14) 0.5499(13)
H14 H -0.101(2) 0.0598(15) 0.2367(13)
H15 H 0.645(2) 1.1446(16) 0.2164(15)
H16 H 0.126(2) 0.0368(15) 0.3861(13)
H17 H 0.1388(19) 1.0217(14) -0.0047(13)
H18 H 0.1698(18) 0.6814(13) 0.5996(12)
H19 H 0.2201(19) 0.1940(15) -0.3354(13)
H20 H 0.409(2) 0.2179(14) 0.4643(13)
loop_
_geom_bond_atom_site_label_1
_geom_bond_atom_site_label_2
_geom_bond_distance
_geom_bond_site_symmetry_1
_geom_bond_site_symmetry_2
C1 C2 1.445 1_555 1_555
C2 C5 1.414 1_555 1_555
C3 C10 1.385 1_555 1_555
C4 C1 1.430 1_555 1_555
C5 C7 1.411 1_555 1_555
C6 C4 1.399 1_555 1_555
C7 C6 1.443 1_555 1_555
C8 C5 1.493 1_555 1_555
C9 C4 1.497 1_555 1_555
C10 C2 1.421 1_555 1_555
C11 C3 1.431 1_555 1_555
C12 C6 1.444 1_555 1_555
C13 C1 1.405 1_555 1_555
C14 C12 1.354 1_555 1_555
C15 C9 1.392 1_555 1_555
C16 C7 1.432 1_555 1_555
C17 C11 1.420 1_555 1_555
C18 C8 1.386 1_555 1_555
C19 C9 1.384 1_555 1_555
C20 C8 1.400 1_555 1_555
C21 C23 1.375 1_555 1_555
C22 C25 1.355 1_555 1_555
C23 C15 1.387 1_555 1_555
C24 C19 1.393 1_555 1_555
C25 C3 1.436 1_555 1_555
C26 C28 1.376 1_555 1_555
C27 C14 1.416 1_555 1_555
C28 C20 1.392 1_555 1_555
C29 C17 1.368 1_555 1_555
C30 C18 1.393 1_555 1_555
H1 C10 1.032 1_555 1_555
H2 C12 1.005 1_555 1_555
H3 C16 0.992 1_555 1_555
H4 C17 0.985 1_555 1_555
H5 C13 0.976 1_555 1_555
H6 C21 0.998 1_555 1_555
H7 C18 1.059 1_555 1_555
H8 C20 1.043 1_555 1_555
H9 C19 1.024 1_555 1_555
H10 C25 1.020 1_555 1_555
H11 C15 0.997 1_555 1_555
H12 C29 1.080 1_555 1_555
H13 C14 1.050 1_555 1_555
H14 C28 1.004 1_555 1_555
H15 C23 0.992 1_555 1_555
H16 C26 1.059 1_555 1_555
H17 C24 1.060 1_555 1_555
H18 C27 1.039 1_555 1_555
H19 C22 1.077 1_555 1_555
H20 C30 1.065 1_555 1_555
C11 C13 1.396 1_555 1_555
C16 C27 1.361 1_555 1_555
C21 C24 1.382 1_555 1_555
C22 C29 1.422 1_555 1_555
C26 C30 1.392 1_555 1_555
#END
