
#######################################################################
#
#                 Cambridge Crystallographic Data Centre
#                                CCDC
#
#######################################################################
#
# If this CIF has been generated from an entry in the Cambridge
# Structural Database, then it will include bibliographic, chemical,
# crystal, experimental, refinement or atomic coordinate data resulting
# from the CCDC's data processing and validation procedures.
#
#######################################################################

data_CSD_CIF_XEJBUK
_audit_creation_date 2006-10-31
_audit_creation_method CSD-ConQuest-V1
_database_code_CSD XEJBUK
_database_code_depnum_ccdc_archive 'CCDC 617481'
_chemical_formula_sum 'C26 H18'
_chemical_formula_moiety
;
C26 H18
;
_journal_coden_Cambridge 35
_journal_volume 71
_journal_year 2006
_journal_page_first 5373
_journal_name_full 'J.Org.Chem. '
loop_
_publ_author_name
"Chao Chen"
"Chanjuan Xi"
"Yuanyuan Liu"
"Xiaoyin Hong"
_chemical_name_systematic
;
9,10-Diphenylphenanthrene
;
_chemical_melting_point 511.15
_cell_volume   7248.660
_exptl_crystal_colour 'colorless'
_exptl_crystal_density_diffrn 1.211
_exptl_special_details
;
Melting point range 511.15-513.15K

;
_exptl_crystal_description 'needle'
_diffrn_ambient_temperature 293
#These two values have been output from a single CSD field.
_refine_ls_R_factor_gt 0.08
_refine_ls_wR_factor_gt 0.08
_symmetry_cell_setting tetragonal
_symmetry_space_group_name_H-M 'I 41/a'
_symmetry_Int_Tables_number 88
loop_
_symmetry_equiv_pos_site_id
_symmetry_equiv_pos_as_xyz
1 x,y,z
2 3/4-y,1/4+x,1/4+z
3 1/2+x,1/2+y,1/2+z
4 1/4-y,3/4+x,3/4+z
5 1/4+y,1/4-x,1/4+z
6 1/2-x,-y,1/2+z
7 3/4+y,3/4-x,3/4+z
8 -x,1/2-y,z
9 -x,-y,-z
10 -3/4+y,-1/4-x,-1/4-z
11 -1/2-x,-1/2-y,-1/2-z
12 -1/4+y,-3/4-x,-3/4-z
13 -1/4-y,-1/4+x,-1/4-z
14 -1/2+x,y,-1/2-z
15 -3/4-y,-3/4+x,-3/4-z
16 x,-1/2+y,-z
_cell_length_a 26.953(3)
_cell_length_b 26.953(3)
_cell_length_c 9.978(3)
_cell_angle_alpha 90
_cell_angle_beta 90
_cell_angle_gamma 90
_cell_formula_units_Z 16
loop_
_atom_type_symbol
_atom_type_radius_bond
C 0.68
H 0.23
loop_
_atom_site_label
_atom_site_type_symbol
_atom_site_fract_x
_atom_site_fract_y
_atom_site_fract_z
C1 C 0.2709(3) 0.1014(3) 0.5644(7)
H1 H 0.30040 0.08360 0.57100
C2 C 0.2269(3) 0.0768(2) 0.5812(7)
H2 H 0.22670 0.04280 0.59600
C3 C 0.1822(3) 0.1030(3) 0.5761(7)
H3 H 0.15230 0.08650 0.58830
C4 C 0.1825(2) 0.1532(3) 0.5531(6)
H4 H 0.15260 0.17040 0.55060
C5 C 0.2271(3) 0.1792(2) 0.5331(6)
C6 C 0.2282(3) 0.2330(2) 0.5091(6)
C7 C 0.2715(3) 0.2575(2) 0.4925(7)
C8 C 0.3180(3) 0.2307(3) 0.4978(7)
C9 C 0.3632(3) 0.2568(2) 0.4820(7)
H5 H 0.36270 0.29090 0.46690
C10 C 0.4077(3) 0.2322(3) 0.4887(7)
H6 H 0.43730 0.24980 0.48080
C11 C 0.4088(2) 0.1811(3) 0.5072(7)
H7 H 0.43900 0.16440 0.50990
C12 C 0.3657(3) 0.1556(2) 0.5212(7)
H8 H 0.36700 0.12140 0.53370
C13 C 0.3194(3) 0.1790(3) 0.5176(7)
C14 C 0.2733(3) 0.1533(3) 0.5373(6)
C15 C 0.1789(3) 0.2594(2) 0.5053(8)
C16 C 0.1565(3) 0.2734(2) 0.6245(8)
H9 H 0.17200 0.26650 0.70570
C17 C 0.1110(3) 0.2976(3) 0.6233(9)
H10 H 0.09640 0.30780 0.70300
C18 C 0.0881(3) 0.3063(3) 0.5028(10)
H11 H 0.05670 0.32070 0.50200
C19 C 0.1099(3) 0.2943(3) 0.3852(9)
H12 H 0.09500 0.30230 0.30390
C20 C 0.1554(3) 0.2697(3) 0.3893(8)
H13 H 0.17000 0.26010 0.30900
C21 C 0.2724(2) 0.3129(3) 0.4697(8)
C22 C 0.2620(2) 0.3316(3) 0.3454(7)
H14 H 0.25450 0.31020 0.27510
C23 C 0.2626(2) 0.3826(3) 0.3237(7)
H15 H 0.25560 0.39530 0.23910
C24 C 0.2735(2) 0.4138(3) 0.4272(8)
H16 H 0.27370 0.44790 0.41260
C25 C 0.2842(3) 0.3959(3) 0.5514(8)
H17 H 0.29230 0.41730 0.62090
C26 C 0.2826(3) 0.3442(3) 0.5728(8)
H18 H 0.28860 0.33150 0.65790
loop_
_geom_bond_atom_site_label_1
_geom_bond_atom_site_label_2
_geom_bond_distance
_geom_bond_site_symmetry_1
_geom_bond_site_symmetry_2
C1 H1 0.931 1_555 1_555
C2 C1 1.369 1_555 1_555
H2 C2 0.928 1_555 1_555
C3 C2 1.397 1_555 1_555
H3 C3 0.928 1_555 1_555
C4 C3 1.372 1_555 1_555
H4 C4 0.930 1_555 1_555
C5 C4 1.406 1_555 1_555
C6 C5 1.470 1_555 1_555
C7 C6 1.351 1_555 1_555
C8 C7 1.448 1_555 1_555
C9 C8 1.416 1_555 1_555
H5 C9 0.931 1_555 1_555
C10 C9 1.372 1_555 1_555
H6 C10 0.932 1_555 1_555
C11 C10 1.390 1_555 1_555
H7 C11 0.931 1_555 1_555
C12 C11 1.357 1_555 1_555
H8 C12 0.931 1_555 1_555
C13 C8 1.408 1_555 1_555
C14 C1 1.426 1_555 1_555
C15 C6 1.508 1_555 1_555
C16 C15 1.386 1_555 1_555
H9 C16 0.930 1_555 1_555
C17 C16 1.389 1_555 1_555
H10 C17 0.929 1_555 1_555
C18 C17 1.372 1_555 1_555
H11 C18 0.931 1_555 1_555
C19 C18 1.352 1_555 1_555
H12 C19 0.931 1_555 1_555
C20 C15 1.348 1_555 1_555
H13 C20 0.929 1_555 1_555
C21 C7 1.511 1_555 1_555
C22 C21 1.368 1_555 1_555
H14 C22 0.930 1_555 1_555
C23 C22 1.392 1_555 1_555
H15 C23 0.930 1_555 1_555
C24 C23 1.364 1_555 1_555
H16 C24 0.931 1_555 1_555
C25 C24 1.361 1_555 1_555
H17 C25 0.928 1_555 1_555
C26 C21 1.359 1_555 1_555
H18 C26 0.930 1_555 1_555
C5 C14 1.428 1_555 1_555
C12 C13 1.399 1_555 1_555
C13 C14 1.436 1_555 1_555
C19 C20 1.395 1_555 1_555
C25 C26 1.410 1_555 1_555
#END
