
#######################################################################
#
#                 Cambridge Crystallographic Data Centre
#                                CCDC
#
#######################################################################
#
# If this CIF has been generated from an entry in the Cambridge
# Structural Database, then it will include bibliographic, chemical,
# crystal, experimental, refinement or atomic coordinate data resulting
# from the CCDC's data processing and validation procedures.
#
#######################################################################

data_CSD_CIF_XEJBUK01
_audit_creation_date 2006-12-20
_audit_creation_method CSD-ConQuest-V1
_database_code_CSD XEJBUK01
_database_code_depnum_ccdc_archive 'CCDC 607598'
_chemical_formula_sum 'C26 H18'
_chemical_formula_moiety
;
C26 H18
;
_journal_coden_Cambridge 579
_journal_volume 25
_journal_year 2006
_journal_page_first 4196
_journal_name_full 'Organometallics '
loop_
_publ_author_name
"T.Schaub"
"M.Backes"
"U.Radius"
_chemical_name_systematic
;
9,10-diphenylphenanthrene
;
_cell_volume   7143.277
_exptl_crystal_colour 'colorless'
_exptl_crystal_density_diffrn 1.229
_exptl_special_details
;
Space group I41/a from the cif has been used, the paper gives I1/n

;
_exptl_crystal_description 'plate'
_diffrn_ambient_temperature 203
#These two values have been output from a single CSD field.
_refine_ls_R_factor_gt 0.046
_refine_ls_wR_factor_gt 0.046
_symmetry_cell_setting tetragonal
_symmetry_space_group_name_H-M 'I 41/a'
_symmetry_Int_Tables_number 88
loop_
_symmetry_equiv_pos_site_id
_symmetry_equiv_pos_as_xyz
1 x,y,z
2 3/4-y,1/4+x,1/4+z
3 1/2-x,-y,1/2+z
4 3/4+y,3/4-x,3/4+z
5 1/2+x,1/2+y,1/2+z
6 1/4-y,3/4+x,3/4+z
7 -x,1/2-y,z
8 1/4+y,1/4-x,1/4+z
9 -x,-y,-z
10 -3/4+y,-1/4-x,-1/4-z
11 -1/2+x,y,-1/2-z
12 -3/4-y,-3/4+x,-3/4-z
13 -1/2-x,-1/2-y,-1/2-z
14 -1/4+y,-3/4-x,-3/4-z
15 x,-1/2+y,-z
16 -1/4-y,-1/4+x,-1/4-z
_cell_length_a 26.8026(13)
_cell_length_b 26.8026(13)
_cell_length_c 9.9436(5)
_cell_angle_alpha 90
_cell_angle_beta 90
_cell_angle_gamma 90
_cell_formula_units_Z 16
loop_
_atom_type_symbol
_atom_type_radius_bond
C 0.68
H 0.23
loop_
_atom_site_label
_atom_site_type_symbol
_atom_site_fract_x
_atom_site_fract_y
_atom_site_fract_z
C1 C 0.27249(7) 0.15309(7) 0.04416(19)
C2 C 0.27044(8) 0.10162(7) 0.0735(2)
H1 H 0.30030 0.08340 0.07970
C3 C 0.22577(8) 0.07761(7) 0.0931(2)
H2 H 0.22540 0.04330 0.11220
C4 C 0.18124(8) 0.10377(7) 0.0849(2)
H3 H 0.15080 0.08710 0.09810
C5 C 0.18169(8) 0.15394(7) 0.0575(2)
H4 H 0.15130 0.17130 0.05180
C6 C 0.22687(7) 0.18008(7) 0.03768(18)
C7 C 0.22744(7) 0.23304(7) 0.01022(18)
C8 C 0.27156(7) 0.25798(6) -0.00787(18)
C9 C 0.31866(7) 0.23157(7) -0.00087(19)
C10 C 0.36441(7) 0.25680(8) -0.0172(2)
H5 H 0.36430 0.29130 -0.03350
C11 C 0.40907(8) 0.23199(8) -0.0099(2)
H6 H 0.43920 0.24960 -0.01940
C12 C 0.40983(8) 0.18061(8) 0.0117(2)
H7 H 0.44040 0.16360 0.01550
C13 C 0.36609(8) 0.15499(8) 0.0272(2)
H8 H 0.36710 0.12030 0.04070
C14 C 0.31946(7) 0.17942(7) 0.02325(19)
C15 C 0.27216(7) 0.31280(7) -0.03418(19)
C16 C 0.26260(7) 0.33162(7) -0.1618(2)
H9 H 0.25530 0.30950 -0.23250
C17 C 0.26369(8) 0.38251(7) -0.1862(2)
H10 H 0.25690 0.39470 -0.27290
C18 C 0.27471(8) 0.41512(7) -0.0837(2)
H11 H 0.27530 0.44960 -0.10020
C19 C 0.28479(9) 0.39721(8) 0.0428(2)
H12 H 0.29280 0.41950 0.11260
C20 C 0.28317(8) 0.34652(7) 0.0678(2)
H13 H 0.28960 0.33470 0.15500
C21 C 0.17851(7) 0.26010(7) 0.00527(19)
C22 C 0.15371(9) 0.27316(8) 0.1228(2)
H14 H 0.16830 0.26590 0.20650
C23 C 0.10773(9) 0.29678(8) 0.1182(3)
H15 H 0.09120 0.30490 0.19860
C24 C 0.08626(9) 0.30839(9) -0.0032(3)
H16 H 0.05520 0.32470 -0.00610
C25 C 0.11035(8) 0.29601(9) -0.1203(3)
H17 H 0.09590 0.30410 -0.20370
C26 C 0.15578(8) 0.27177(8) -0.1162(2)
H18 H 0.17160 0.26300 -0.19710
loop_
_geom_bond_atom_site_label_1
_geom_bond_atom_site_label_2
_geom_bond_distance
_geom_bond_site_symmetry_1
_geom_bond_site_symmetry_2
C1 C2 1.411 1_555 1_555
C2 H1 0.940 1_555 1_555
C3 C2 1.373 1_555 1_555
H2 C3 0.939 1_555 1_555
C4 C3 1.387 1_555 1_555
H3 C4 0.939 1_555 1_555
C5 C4 1.372 1_555 1_555
H4 C5 0.940 1_555 1_555
C6 C1 1.422 1_555 1_555
C7 C6 1.446 1_555 1_555
C8 C7 1.370 1_555 1_555
C9 C8 1.449 1_555 1_555
C10 C9 1.410 1_555 1_555
H5 C10 0.939 1_555 1_555
C11 C10 1.371 1_555 1_555
H6 C11 0.940 1_555 1_555
C12 C11 1.394 1_555 1_555
H7 C12 0.938 1_555 1_555
C13 C12 1.367 1_555 1_555
H8 C13 0.940 1_555 1_555
C14 C1 1.458 1_555 1_555
C15 C8 1.493 1_555 1_555
C16 C15 1.389 1_555 1_555
H9 C16 0.940 1_555 1_555
C17 C16 1.386 1_555 1_555
H10 C17 0.940 1_555 1_555
C18 C17 1.375 1_555 1_555
H11 C18 0.939 1_555 1_555
C19 C18 1.373 1_555 1_555
H12 C19 0.941 1_555 1_555
C20 C15 1.390 1_555 1_555
H13 C20 0.939 1_555 1_555
C21 C7 1.499 1_555 1_555
C22 C21 1.389 1_555 1_555
H14 C22 0.940 1_555 1_555
C23 C22 1.386 1_555 1_555
H15 C23 0.940 1_555 1_555
C24 C23 1.373 1_555 1_555
H16 C24 0.941 1_555 1_555
C25 C24 1.372 1_555 1_555
H17 C25 0.941 1_555 1_555
C26 C21 1.388 1_555 1_555
H18 C26 0.939 1_555 1_555
C5 C6 1.413 1_555 1_555
C9 C14 1.418 1_555 1_555
C13 C14 1.411 1_555 1_555
C19 C20 1.382 1_555 1_555
C25 C26 1.381 1_555 1_555
#END
