
#######################################################################
#
#                 Cambridge Crystallographic Data Centre
#                                CCDC
#
#######################################################################
#
# If this CIF has been generated from an entry in the Cambridge
# Structural Database, then it will include bibliographic, chemical,
# crystal, experimental, refinement or atomic coordinate data resulting
# from the CCDC's data processing and validation procedures.
#
#######################################################################

data_CSD_CIF_XESREV
_audit_creation_date 2017-11-21
_audit_creation_method CSD-ConQuest-V1
_database_code_CSD XESREV
_database_code_depnum_ccdc_archive 'CCDC 1444490'
_chemical_formula_sum 'C40 H26'
_chemical_formula_moiety
;
C40 H26
;
_journal_coden_Cambridge 983
_journal_volume 120
_journal_year 2016
_journal_page_first 21722
_journal_name_full 'J.Phys.Chem.C '
loop_
_publ_author_name
"Ye-Xin Li"
"Xiao-Feng Yang"
"Jin-Ling Miao"
"Guo-Xin Sun"
_chemical_name_systematic
;
1-(2-(4-(2-(9-anthryl)vinyl)phenyl)vinyl)pyrene
;
_cell_volume   2651.306
_exptl_crystal_density_diffrn 1.269
_diffrn_ambient_temperature 293.1
#These two values have been output from a single CSD field.
_refine_ls_R_factor_gt 0.0782
_refine_ls_wR_factor_gt 0.0782
_symmetry_cell_setting monoclinic
_symmetry_space_group_name_H-M 'P 21/c'
_symmetry_Int_Tables_number 14
loop_
_symmetry_equiv_pos_site_id
_symmetry_equiv_pos_as_xyz
1 x,y,z
2 -x,1/2+y,1/2-z
3 -x,-y,-z
4 x,-1/2-y,-1/2+z
_cell_length_a 17.9548(8)
_cell_length_b 5.7876(3)
_cell_length_c 26.0111(13)
_cell_angle_alpha 90
_cell_angle_beta 101.218(5)
_cell_angle_gamma 90
_cell_formula_units_Z 4
loop_
_atom_type_symbol
_atom_type_radius_bond
C 0.68
H 0.23
loop_
_atom_site_label
_atom_site_type_symbol
_atom_site_fract_x
_atom_site_fract_y
_atom_site_fract_z
C1 C 0.03674(15) 0.8792(5) 0.15460(11)
C2 C 0.09481(15) 0.7191(5) 0.17615(11)
C3 C 0.13397(15) 0.7410(5) 0.22939(11)
C4 C 0.02019(17) 1.0603(6) 0.18847(11)
H1 H -0.01760 1.16660 0.17540
C5 C -0.15772(16) 1.1888(5) 0.00775(11)
C6 C -0.47630(16) 2.1943(5) -0.17291(11)
C7 C -0.00135(16) 0.8537(5) 0.10179(11)
C8 C -0.43901(16) 1.8505(5) -0.11818(11)
C9 C 0.11421(16) 0.5353(5) 0.14530(12)
C10 C -0.53872(17) 2.2221(5) -0.14936(11)
H2 H -0.57090 2.34720 -0.15910
C11 C -0.06093(17) 1.0171(6) 0.07840(12)
H3 H -0.07340 1.12970 0.10080
C12 C -0.55475(16) 2.0706(5) -0.11197(11)
C13 C -0.42555(15) 2.0049(5) -0.15737(11)
C14 C -0.09875(18) 1.0244(6) 0.02998(12)
H4 H -0.08660 0.91240 0.00730
C15 C 0.05763(19) 1.0815(6) 0.23856(12)
H5 H 0.04480 1.20140 0.25900
C16 C -0.50416(16) 1.8795(5) -0.09594(11)
C17 C 0.11621(17) 0.9254(6) 0.26090(11)
C18 C -0.38244(18) 1.6674(6) -0.09977(13)
H6 H -0.38140 1.54160 -0.12190
C19 C 0.20938(18) 0.3993(6) 0.21798(14)
H7 H 0.24660 0.29220 0.23170
C20 C 0.19149(16) 0.5804(6) 0.25074(12)
C21 C 0.01892(18) 0.6690(6) 0.07307(12)
H8 H -0.00650 0.64910 0.03860
C22 C -0.27463(17) 1.5015(5) -0.03595(11)
C23 C -0.4597(2) 2.3481(5) -0.21199(13)
H9 H -0.49170 2.47320 -0.22220
C24 C -0.26082(18) 1.3038(6) -0.06240(12)
H10 H -0.29050 1.27220 -0.09510
C25 C -0.62031(19) 2.0952(7) -0.08923(13)
H11 H -0.65240 2.22070 -0.09860
C26 C 0.2286(2) 0.6067(8) 0.30261(14)
H12 H 0.26580 0.50080 0.31700
C27 C -0.17141(17) 1.3890(6) 0.03364(12)
H13 H -0.14120 1.42230 0.06610
C28 C -0.2036(2) 1.1524(6) -0.04100(13)
H14 H -0.19570 1.02150 -0.05990
C29 C 0.07505(19) 0.5154(6) 0.09368(13)
H15 H 0.08720 0.39600 0.07280
C30 C -0.2285(2) 1.5398(6) 0.01268(13)
H16 H -0.23640 1.67090 0.03160
C31 C -0.3497(2) 2.1289(7) -0.21969(15)
H17 H -0.30800 2.10810 -0.23550
C32 C 0.17385(18) 0.3801(6) 0.16799(14)
H18 H 0.18820 0.26310 0.14740
C33 C -0.36269(18) 1.9793(6) -0.18284(13)
H19 H -0.32970 1.85570 -0.17380
C34 C 0.1561(2) 0.9445(7) 0.31242(13)
H20 H 0.14520 1.06560 0.33330
C35 C 0.2115(2) 0.7854(9) 0.33279(14)
H21 H 0.23740 0.79990 0.36730
C36 C -0.5242(2) 1.7221(7) -0.05892(13)
H22 H -0.49250 1.59710 -0.04800
C37 C -0.33533(19) 1.6667(6) -0.05664(13)
H23 H -0.33990 1.79010 -0.03460
C38 C -0.3993(2) 2.3176(6) -0.23450(14)
H24 H -0.38990 2.42080 -0.25990
C39 C -0.6368(2) 1.9393(8) -0.05426(15)
H25 H -0.68030 1.95730 -0.04020
C40 C -0.5880(2) 1.7492(8) -0.03920(15)
H26 H -0.59990 1.64170 -0.01550
loop_
_geom_bond_atom_site_label_1
_geom_bond_atom_site_label_2
_geom_bond_distance
_geom_bond_site_symmetry_1
_geom_bond_site_symmetry_2
C1 C2 1.426 1_555 1_555
C2 C3 1.432 1_555 1_555
C3 C17 1.419 1_555 1_555
C4 C1 1.437 1_555 1_555
H1 C4 0.930 1_555 1_555
C5 C14 1.457 1_555 1_555
C6 C10 1.387 1_555 1_555
C7 C1 1.418 1_555 1_555
C8 C13 1.411 1_555 1_555
C9 C2 1.416 1_555 1_555
C10 H2 0.930 1_555 1_555
C11 C7 1.468 1_555 1_555
H3 C11 0.930 1_555 1_555
C12 C10 1.381 1_555 1_555
C13 C6 1.432 1_555 1_555
C14 C11 1.310 1_555 1_555
H4 C14 0.931 1_555 1_555
C15 C4 1.350 1_555 1_555
H5 C15 0.930 1_555 1_555
C16 C8 1.412 1_555 1_555
C17 C15 1.422 1_555 1_555
C18 C8 1.481 1_555 1_555
H6 C18 0.931 1_555 1_555
C19 H7 0.930 1_555 1_555
C20 C3 1.420 1_555 1_555
C21 C7 1.392 1_555 1_555
H8 C21 0.931 1_555 1_555
C22 C24 1.382 1_555 1_555
C23 C6 1.426 1_555 1_555
H9 C23 0.930 1_555 1_555
C24 H10 0.930 1_555 1_555
C25 C12 1.424 1_555 1_555
H11 C25 0.930 1_555 1_555
C26 C20 1.392 1_555 1_555
H12 C26 0.930 1_555 1_555
C27 C5 1.386 1_555 1_555
H13 C27 0.931 1_555 1_555
C28 C5 1.387 1_555 1_555
H14 C28 0.929 1_555 1_555
C29 C9 1.394 1_555 1_555
H15 C29 0.931 1_555 1_555
C30 C22 1.388 1_555 1_555
H16 C30 0.930 1_555 1_555
C31 H17 0.930 1_555 1_555
C32 C9 1.434 1_555 1_555
H18 C32 0.930 1_555 1_555
C33 C13 1.423 1_555 1_555
H19 C33 0.929 1_555 1_555
C34 C17 1.396 1_555 1_555
H20 C34 0.931 1_555 1_555
C35 C26 1.369 1_555 1_555
H21 C35 0.931 1_555 1_555
C36 C16 1.422 1_555 1_555
H22 C36 0.930 1_555 1_555
C37 C18 1.267 1_555 1_555
H23 C37 0.929 1_555 1_555
C38 C23 1.341 1_555 1_555
H24 C38 0.930 1_555 1_555
C39 C25 1.354 1_555 1_555
H25 C39 0.930 1_555 1_555
C40 C36 1.352 1_555 1_555
H26 C40 0.930 1_555 1_555
C12 C16 1.440 1_555 1_555
C19 C20 1.426 1_555 1_555
C19 C32 1.337 1_555 1_555
C21 C29 1.372 1_555 1_555
C22 C37 1.471 1_555 1_555
C24 C28 1.382 1_555 1_555
C27 C30 1.376 1_555 1_555
C31 C33 1.345 1_555 1_555
C31 C38 1.414 1_555 1_555
C34 C35 1.383 1_555 1_555
C39 C40 1.414 1_555 1_555
#END
