
#######################################################################
#
#                 Cambridge Crystallographic Data Centre
#                                CCDC
#
#######################################################################
#
# If this CIF has been generated from an entry in the Cambridge
# Structural Database, then it will include bibliographic, chemical,
# crystal, experimental, refinement or atomic coordinate data resulting
# from the CCDC's data processing and validation procedures.
#
#######################################################################

data_CSD_CIF_XESTAT
_audit_creation_date 2017-11-21
_audit_creation_method CSD-ConQuest-V1
_database_code_CSD XESTAT
_database_code_depnum_ccdc_archive 'CCDC 1470570'
_chemical_formula_sum 'C40 H26'
_chemical_formula_moiety
;
C40 H26
;
_journal_coden_Cambridge 983
_journal_volume 120
_journal_year 2016
_journal_page_first 21722
_journal_name_full 'J.Phys.Chem.C '
loop_
_publ_author_name
"Ye-Xin Li"
"Xiao-Feng Yang"
"Jin-Ling Miao"
"Guo-Xin Sun"
_chemical_name_systematic
;
trans,trans-1-(9-anthryl)vinyl-2-(1-pyrenyl)vinylbenzene
;
_chemical_name_common
;
1-(2-(2-(2-(9-anthryl)vinyl)phenyl)vinyl)pyrene
;
_cell_volume   2668.504
_exptl_crystal_colour 'yellow'
_exptl_crystal_density_diffrn 1.261
_exptl_crystal_description 'needle'
_diffrn_ambient_temperature 293.1
#These two values have been output from a single CSD field.
_refine_ls_R_factor_gt 0.0892
_refine_ls_wR_factor_gt 0.0892
_symmetry_cell_setting monoclinic
_symmetry_space_group_name_H-M 'P 21/c'
_symmetry_Int_Tables_number 14
loop_
_symmetry_equiv_pos_site_id
_symmetry_equiv_pos_as_xyz
1 x,y,z
2 -x,1/2+y,1/2-z
3 -x,-y,-z
4 x,-1/2-y,-1/2+z
_cell_length_a 18.261(5)
_cell_length_b 6.7430(18)
_cell_length_c 21.906(4)
_cell_angle_alpha 90
_cell_angle_beta 98.39(2)
_cell_angle_gamma 90
_cell_formula_units_Z 4
loop_
_atom_type_symbol
_atom_type_radius_bond
C 0.68
H 0.23
loop_
_atom_site_label
_atom_site_type_symbol
_atom_site_fract_x
_atom_site_fract_y
_atom_site_fract_z
C1 C 0.7317(3) 0.6355(8) 0.4968(2)
C2 C 0.9384(3) -0.0567(8) 0.7016(2)
C3 C 0.6694(3) 0.3092(9) 0.3529(2)
C4 C 0.7818(3) 0.6265(8) 0.5519(2)
C5 C 0.6315(3) 0.2074(8) 0.2454(2)
C6 C 0.6280(2) 0.3463(8) 0.2945(2)
C7 C 0.9953(3) -0.1180(9) 0.6701(2)
H1 H 1.01930 -0.23730 0.68090
C8 C 0.9003(3) 0.1237(8) 0.6847(2)
C9 C 0.9193(3) 0.2383(8) 0.6354(2)
C10 C 0.5907(3) 0.2445(9) 0.1853(2)
C11 C 0.6736(3) 0.0308(9) 0.2558(2)
C12 C 0.7853(3) 0.7861(8) 0.5932(2)
H2 H 0.81810 0.78100 0.62990
C13 C 0.5941(3) 0.1082(10) 0.1366(2)
C14 C 1.0171(3) -0.0055(9) 0.6230(2)
C15 C 0.9796(3) 0.1762(9) 0.6060(2)
C16 C 0.5470(3) 0.4195(9) 0.1741(2)
C17 C 0.6916(3) 0.9606(9) 0.5272(3)
H3 H 0.66070 1.07010 0.51940
C18 C 0.8287(3) 0.4487(8) 0.5686(2)
H4 H 0.82260 0.34460 0.54050
C19 C 0.5836(3) 0.5226(9) 0.2805(3)
H5 H 0.58150 0.61640 0.31130
C20 C 0.7091(3) 0.1334(9) 0.3618(2)
H6 H 0.73550 0.10670 0.40050
C21 C 0.7266(3) 0.4797(9) 0.4493(2)
H7 H 0.76570 0.39030 0.45230
C22 C 0.6885(3) 0.8057(9) 0.4850(3)
H8 H 0.65670 0.81580 0.44790
C23 C 0.7412(3) 0.9491(9) 0.5806(3)
H9 H 0.74480 1.05370 0.60850
C24 C 0.6728(3) 0.4529(9) 0.4031(2)
H10 H 0.63190 0.53570 0.40230
C25 C 0.6765(3) -0.1028(10) 0.2057(3)
H11 H 0.70520 -0.21710 0.21200
C26 C 0.8771(3) 0.4203(9) 0.6175(3)
H12 H 0.88600 0.52740 0.64440
C27 C 0.5454(3) 0.5548(9) 0.2243(3)
H13 H 0.51690 0.66910 0.21770
C28 C 0.9190(3) -0.1716(9) 0.7522(3)
H14 H 0.94380 -0.28960 0.76330
C29 C 0.8423(3) 0.1769(10) 0.7193(3)
H15 H 0.81470 0.29050 0.70810
C30 C 0.7106(3) -0.0036(9) 0.3148(3)
H16 H 0.73690 -0.12100 0.32300
C31 C 0.6385(3) -0.066(1) 0.1493(3)
H17 H 0.64120 -0.15670 0.11770
C32 C 0.8653(3) -0.1088(11) 0.7834(3)
H18 H 0.85360 -0.18390 0.81620
C33 C 0.8262(3) 0.0688(11) 0.7673(3)
H19 H 0.78960 0.11080 0.78980
C34 C 0.5077(3) 0.4488(11) 0.1156(3)
H20 H 0.47840 0.56160 0.10820
C35 C 0.5537(3) 0.1475(12) 0.0790(3)
H21 H 0.55580 0.05840 0.04690
C36 C 1.0790(3) -0.0638(11) 0.5924(3)
H22 H 1.10330 -0.18270 0.60300
C37 C 0.5105(3) 0.3163(12) 0.0683(3)
H23 H 0.48370 0.33980 0.02960
C38 C 1.1017(4) 0.0526(13) 0.5486(3)
H24 H 1.14070 0.01200 0.52860
C39 C 1.0665(4) 0.2348(13) 0.5332(3)
H25 H 1.08390 0.31680 0.50440
C40 C 1.0068(3) 0.2931(12) 0.5601(3)
H26 H 0.98340 0.41220 0.54800
loop_
_geom_bond_atom_site_label_1
_geom_bond_atom_site_label_2
_geom_bond_distance
_geom_bond_site_symmetry_1
_geom_bond_site_symmetry_2
C1 C4 1.405 1_555 1_555
C2 C7 1.391 1_555 1_555
C3 C6 1.410 1_555 1_555
C4 C12 1.401 1_555 1_555
C5 C6 1.435 1_555 1_555
C6 C19 1.446 1_555 1_555
C7 H1 0.930 1_555 1_555
C8 C2 1.423 1_555 1_555
C9 C8 1.412 1_555 1_555
C10 C5 1.437 1_555 1_555
C11 C5 1.418 1_555 1_555
C12 H2 0.930 1_555 1_555
C13 C10 1.416 1_555 1_555
C14 C7 1.385 1_555 1_555
C15 C9 1.418 1_555 1_555
C16 C10 1.426 1_555 1_555
C17 H3 0.930 1_555 1_555
C18 C4 1.488 1_555 1_555
H4 C18 0.930 1_555 1_555
C19 H5 0.930 1_555 1_555
C20 C3 1.388 1_555 1_555
H6 C20 0.930 1_555 1_555
C21 C1 1.472 1_555 1_555
H7 C21 0.929 1_555 1_555
C22 C1 1.395 1_555 1_555
H8 C22 0.930 1_555 1_555
C23 C12 1.367 1_555 1_555
H9 C23 0.929 1_555 1_555
C24 C3 1.460 1_555 1_555
H10 C24 0.931 1_555 1_555
C25 C11 1.427 1_555 1_555
H11 C25 0.931 1_555 1_555
C26 C9 1.472 1_555 1_555
H12 C26 0.931 1_555 1_555
C27 C16 1.432 1_555 1_555
H13 C27 0.929 1_555 1_555
C28 C2 1.438 1_555 1_555
H14 C28 0.930 1_555 1_555
C29 C8 1.435 1_555 1_555
H15 C29 0.930 1_555 1_555
C30 C11 1.388 1_555 1_555
H16 C30 0.930 1_555 1_555
C31 C13 1.431 1_555 1_555
H17 C31 0.930 1_555 1_555
C32 C28 1.343 1_555 1_555
H18 C32 0.929 1_555 1_555
C33 C29 1.347 1_555 1_555
H19 C33 0.931 1_555 1_555
C34 C16 1.388 1_555 1_555
H20 C34 0.930 1_555 1_555
C35 C13 1.391 1_555 1_555
H21 C35 0.930 1_555 1_555
C36 C14 1.450 1_555 1_555
H22 C36 0.929 1_555 1_555
C37 C34 1.375 1_555 1_555
H23 C37 0.929 1_555 1_555
C38 C36 1.351 1_555 1_555
H24 C38 0.930 1_555 1_555
C39 C38 1.405 1_555 1_555
H25 C39 0.929 1_555 1_555
C40 C15 1.423 1_555 1_555
H26 C40 0.930 1_555 1_555
C14 C15 1.426 1_555 1_555
C17 C22 1.390 1_555 1_555
C17 C23 1.373 1_555 1_555
C18 C26 1.300 1_555 1_555
C19 C27 1.341 1_555 1_555
C20 C30 1.387 1_555 1_555
C21 C24 1.316 1_555 1_555
C25 C31 1.349 1_555 1_555
C32 C33 1.412 1_555 1_555
C35 C37 1.385 1_555 1_555
C39 C40 1.370 1_555 1_555
#END
