
#######################################################################
#
#                 Cambridge Crystallographic Data Centre
#                                CCDC
#
#######################################################################
#
# If this CIF has been generated from an entry in the Cambridge
# Structural Database, then it will include bibliographic, chemical,
# crystal, experimental, refinement or atomic coordinate data resulting
# from the CCDC's data processing and validation procedures.
#
#######################################################################

data_CSD_CIF_XIDLIH
_audit_creation_date 2013-05-21
_audit_creation_method CSD-ConQuest-V1
_database_code_CSD XIDLIH
_database_code_depnum_ccdc_archive 'CCDC 891218'
_chemical_formula_sum 'C30 H34'
_chemical_formula_moiety
;
C30 H34
;
_journal_coden_Cambridge 182
_journal_volume 49
_journal_year 2013
_journal_page_first 4301
_journal_name_full 'Chem.Commun. '
loop_
_publ_author_name
"Hai Xia"
"Danqing Liu"
"Xiaomin Xu"
"Qian Miao"
_chemical_name_systematic
;
1,2,6,7-Tetrapropylcyclopenta[hi]aceanthrylene
;
_cell_volume    591.678
_exptl_crystal_colour 'black'
_exptl_crystal_density_diffrn 1.107
_exptl_crystal_description 'block'
_diffrn_ambient_temperature 296
#These two values have been output from a single CSD field.
_refine_ls_R_factor_gt 0.06
_refine_ls_wR_factor_gt 0.06
_symmetry_cell_setting triclinic
_symmetry_space_group_name_H-M 'P -1'
_symmetry_Int_Tables_number 2
loop_
_symmetry_equiv_pos_site_id
_symmetry_equiv_pos_as_xyz
1 x,y,z
2 -x,-y,-z
_cell_length_a 4.8931(7)
_cell_length_b 10.3024(15)
_cell_length_c 11.9639(18)
_cell_angle_alpha 85.254(3)
_cell_angle_beta 80.129(3)
_cell_angle_gamma 86.958(3)
_cell_formula_units_Z 1
loop_
_atom_type_symbol
_atom_type_radius_bond
C 0.68
H 0.23
loop_
_atom_site_label
_atom_site_type_symbol
_atom_site_fract_x
_atom_site_fract_y
_atom_site_fract_z
C1 C 0.3545(8) -0.1625(3) 0.4471(2)
H1 H 0.21460 -0.18110 0.51230
H2 H 0.50980 -0.12550 0.47040
H3 H 0.41450 -0.24160 0.41150
C2 C 0.2355(6) -0.0664(3) 0.3632(2)
H4 H 0.17270 0.01290 0.39980
H5 H 0.07590 -0.10320 0.34130
C3 C 0.4480(6) -0.0332(3) 0.2568(2)
H6 H 0.59860 0.01110 0.27860
H7 H 0.52500 -0.11370 0.22550
C4 C 0.3340(5) 0.0502(2) 0.1666(2)
C5 C 0.1634(5) 0.0045(2) 0.08825(19)
C6 C 0.0990(5) 0.1133(2) 0.01667(19)
C7 C -0.0591(5) 0.1159(2) -0.07148(19)
C8 C -0.0891(6) 0.2410(2) -0.1316(2)
H8 H -0.19480 0.25030 -0.18960
C9 C 0.0362(6) 0.3460(3) -0.1042(2)
H9 H 0.01580 0.42550 -0.14540
C10 C 0.1962(6) 0.3399(2) -0.0157(2)
H10 H 0.28010 0.41350 0.00010
C11 C 0.2250(5) 0.2236(2) 0.0460(2)
C12 C 0.3698(5) 0.1813(3) 0.1413(2)
C13 C 0.5121(6) 0.2725(3) 0.2011(2)
H11 H 0.60090 0.33810 0.14580
H12 H 0.65560 0.22430 0.23580
C14 C 0.3113(7) 0.3397(3) 0.2926(2)
H13 H 0.15310 0.37600 0.26000
H14 H 0.24360 0.27480 0.35310
C15 C 0.4358(9) 0.4459(3) 0.3427(3)
H15 H 0.29840 0.48360 0.39940
H16 H 0.49910 0.51190 0.28390
H17 H 0.58970 0.41060 0.37710
C1A C -0.3545(8) 0.1625(3) -0.4471(2)
H1A H -0.21460 0.18110 -0.51230
H2A H -0.50980 0.12550 -0.47040
H3A H -0.41450 0.24160 -0.41150
C2A C -0.2355(6) 0.0664(3) -0.3632(2)
H4A H -0.17270 -0.01290 -0.39980
H5A H -0.07590 0.10320 -0.34130
C3A C -0.4480(6) 0.0332(3) -0.2568(2)
H6A H -0.59860 -0.01110 -0.27860
H7A H -0.52500 0.11370 -0.22550
C4A C -0.3340(5) -0.0502(2) -0.1666(2)
C5A C -0.1634(5) -0.0045(2) -0.08825(19)
C6A C -0.0990(5) -0.1133(2) -0.01667(19)
C7A C 0.0591(5) -0.1159(2) 0.07148(19)
C8A C 0.0891(6) -0.2410(2) 0.1316(2)
H8A H 0.19480 -0.25030 0.18960
C9A C -0.0362(6) -0.3460(3) 0.1042(2)
H9A H -0.01580 -0.42550 0.14540
C10A C -0.1962(6) -0.3399(2) 0.0157(2)
H10A H -0.28010 -0.41350 -0.00010
C11A C -0.2250(5) -0.2236(2) -0.0460(2)
C12A C -0.3698(5) -0.1813(3) -0.1413(2)
C13A C -0.5121(6) -0.2725(3) -0.2011(2)
H11A H -0.60090 -0.33810 -0.14580
H12A H -0.65560 -0.22430 -0.23580
C14A C -0.3113(7) -0.3397(3) -0.2926(2)
H13A H -0.15310 -0.37600 -0.26000
H14A H -0.24360 -0.27480 -0.35310
C15A C -0.4358(9) -0.4459(3) -0.3427(3)
H15A H -0.29840 -0.48360 -0.39940
H16A H -0.49910 -0.51190 -0.28390
H17A H -0.58970 -0.41060 -0.37710
loop_
_geom_bond_atom_site_label_1
_geom_bond_atom_site_label_2
_geom_bond_distance
_geom_bond_site_symmetry_1
_geom_bond_site_symmetry_2
C1 H1 0.959 1_555 1_555
H2 C1 0.960 1_555 1_555
H3 C1 0.960 1_555 1_555
C2 C1 1.517 1_555 1_555
H4 C2 0.970 1_555 1_555
H5 C2 0.970 1_555 1_555
C3 C2 1.527 1_555 1_555
H6 C3 0.970 1_555 1_555
H7 C3 0.969 1_555 1_555
C4 C3 1.489 1_555 1_555
C5 C4 1.477 1_555 1_555
C6 C5 1.409 1_555 1_555
C7 C6 1.409 1_555 1_555
C8 C7 1.436 1_555 1_555
H8 C8 0.930 1_555 1_555
C9 C8 1.361 1_555 1_555
H9 C9 0.930 1_555 1_555
C10 C9 1.416 1_555 1_555
H10 C10 0.929 1_555 1_555
C11 C6 1.417 1_555 1_555
C12 C4 1.373 1_555 1_555
C13 C12 1.494 1_555 1_555
H11 C13 0.971 1_555 1_555
H12 C13 0.970 1_555 1_555
C14 C13 1.526 1_555 1_555
H13 C14 0.969 1_555 1_555
H14 C14 0.971 1_555 1_555
C15 C14 1.494 1_555 1_555
H15 C15 0.960 1_555 1_555
H16 C15 0.960 1_555 1_555
H17 C15 0.960 1_555 1_555
C1A H1A 0.959 1_555 1_555
H2A C1A 0.960 1_555 1_555
H3A C1A 0.960 1_555 1_555
C2A C1A 1.517 1_555 1_555
H4A C2A 0.970 1_555 1_555
H5A C2A 0.970 1_555 1_555
C3A C2A 1.527 1_555 1_555
H6A C3A 0.970 1_555 1_555
H7A C3A 0.969 1_555 1_555
C4A C3A 1.489 1_555 1_555
C5A C7 1.408 1_555 1_555
C6A C5A 1.409 1_555 1_555
C7A C5 1.408 1_555 1_555
C8A C7A 1.436 1_555 1_555
H8A C8A 0.930 1_555 1_555
C9A C8A 1.361 1_555 1_555
H9A C9A 0.930 1_555 1_555
C10A C9A 1.416 1_555 1_555
H10A C10A 0.929 1_555 1_555
C11A C6A 1.417 1_555 1_555
C12A C4A 1.373 1_555 1_555
C13A C12A 1.494 1_555 1_555
H11A C13A 0.971 1_555 1_555
H12A C13A 0.970 1_555 1_555
C14A C13A 1.526 1_555 1_555
H13A C14A 0.969 1_555 1_555
H14A C14A 0.971 1_555 1_555
C15A C14A 1.494 1_555 1_555
H15A C15A 0.960 1_555 1_555
H16A C15A 0.960 1_555 1_555
H17A C15A 0.960 1_555 1_555
C10 C11 1.368 1_555 1_555
C11 C12 1.468 1_555 1_555
C4A C5A 1.477 1_555 1_555
C6A C7A 1.409 1_555 1_555
C10A C11A 1.368 1_555 1_555
C11A C12A 1.468 1_555 1_555
#END
