
#######################################################################
#
#                 Cambridge Crystallographic Data Centre
#                                CCDC
#
#######################################################################
#
# If this CIF has been generated from an entry in the Cambridge
# Structural Database, then it will include bibliographic, chemical,
# crystal, experimental, refinement or atomic coordinate data resulting
# from the CCDC's data processing and validation procedures.
#
#######################################################################

data_CSD_CIF_XIGCEY
_audit_creation_date 2018-09-05
_audit_creation_method CSD-ConQuest-V1
_database_code_CSD XIGCEY
_database_code_depnum_ccdc_archive 'CCDC 1865911'
_chemical_formula_sum 'C26 H14'
_chemical_formula_moiety
;
C26 H14
;
_journal_coden_Cambridge 983
_journal_volume 117
_journal_year 2013
_journal_page_first 16802
_journal_name_full 'J.Phys.Chem.C '
loop_
_publ_author_name
"V.M.Nichols"
"M.T.Rodriguez"
"G.B.Piland"
"Fook Tham"
"V.N.Nesterov"
"W.Justin Youngblood"
"C.J.Bardeen"
_chemical_name_systematic
;
dibenzo[cd,lm]perylene
;
_cell_volume   1546.020
_exptl_crystal_colour 'yellow'
_exptl_crystal_density_diffrn 1.402
_exptl_crystal_description 'thin plate'
_diffrn_ambient_temperature 100
#These two values have been output from a single CSD field.
_refine_ls_R_factor_gt 0.05
_refine_ls_wR_factor_gt 0.05
_symmetry_cell_setting monoclinic
_symmetry_space_group_name_H-M 'P 21/c'
_symmetry_Int_Tables_number 14
loop_
_symmetry_equiv_pos_site_id
_symmetry_equiv_pos_as_xyz
1 x,y,z
2 -x,1/2+y,1/2-z
3 -x,-y,-z
4 x,-1/2-y,-1/2+z
_cell_length_a 12.377(3)
_cell_length_b 8.994(2)
_cell_length_c 13.897(3)
_cell_angle_alpha 90
_cell_angle_beta 92.036(4)
_cell_angle_gamma 90
_cell_formula_units_Z 4
loop_
_atom_type_symbol
_atom_type_radius_bond
C 0.68
H 0.23
loop_
_atom_site_label
_atom_site_type_symbol
_atom_site_fract_x
_atom_site_fract_y
_atom_site_fract_z
C1 C 0.86363(14) 0.37787(19) 0.14404(12)
C2 C 0.94929(14) 0.47061(19) 0.18084(11)
C3 C 0.98396(15) 0.27129(19) 0.02523(11)
C4 C 0.88100(14) 0.27858(19) 0.06616(11)
C5 C 1.05288(15) 0.46125(19) 0.14074(12)
C6 C 0.75988(15) 0.3844(2) 0.18610(12)
C7 C 1.06988(14) 0.36158(19) 0.06292(11)
C8 C 1.17461(15) 0.34972(19) 0.02364(12)
C9 C 0.67369(15) 0.2931(2) 0.15075(12)
C10 C 0.74161(15) 0.4833(2) 0.26376(13)
C11 C 0.79097(15) 0.1889(2) 0.03202(13)
H1 H 0.80080 0.12300 -0.02040
C12 C 1.26297(15) 0.4349(2) 0.06266(12)
C13 C 1.10461(16) 0.1644(2) -0.09036(12)
H2 H 1.11540 0.09890 -0.14280
C14 C 0.92614(16) 0.5708(2) 0.25774(12)
H3 H 0.98150 0.63530 0.28180
C15 C 1.19359(15) 0.2495(2) -0.05308(12)
C16 C 1.14310(16) 0.5481(2) 0.17643(12)
H4 H 1.13250 0.61650 0.22730
C17 C 0.64019(16) 0.4880(2) 0.30425(13)
H5 H 0.62840 0.55310 0.35670
C18 C 0.82823(15) 0.5760(2) 0.29690(12)
H6 H 0.81670 0.64350 0.34810
C19 C 0.57276(15) 0.3026(2) 0.19304(14)
H7 H 0.51470 0.24220 0.16940
C20 C 1.24243(15) 0.5356(2) 0.14020(13)
H8 H 1.29990 0.59460 0.16650
C21 C 1.29715(16) 0.2373(2) -0.08855(13)
H9 H 1.30950 0.17110 -0.14020
C22 C 0.69369(15) 0.1954(2) 0.07180(13)
H10 H 0.63680 0.13390 0.04700
C23 C 1.00598(16) 0.17381(19) -0.05362(12)
H11 H 0.94910 0.11440 -0.08050
C24 C 1.36488(16) 0.4182(2) 0.02527(13)
H12 H 1.42380 0.47470 0.05140
C25 C 0.55662(17) 0.3992(2) 0.26918(14)
H13 H 0.48780 0.40430 0.29720
C26 C 1.38182(16) 0.3198(2) -0.04987(13)
H14 H 1.45200 0.30940 -0.07460
loop_
_geom_bond_atom_site_label_1
_geom_bond_atom_site_label_2
_geom_bond_distance
_geom_bond_site_symmetry_1
_geom_bond_site_symmetry_2
C1 C2 1.429 1_555 1_555
C2 C5 1.419 1_555 1_555
C3 C4 1.415 1_555 1_555
C4 C1 1.425 1_555 1_555
C5 C7 1.426 1_555 1_555
C6 C1 1.431 1_555 1_555
C7 C3 1.423 1_555 1_555
C8 C7 1.428 1_555 1_555
C9 C6 1.420 1_555 1_555
C10 C6 1.423 1_555 1_555
C11 C4 1.442 1_555 1_555
H1 C11 0.950 1_555 1_555
C12 C8 1.426 1_555 1_555
C13 H2 0.950 1_555 1_555
C14 C2 1.435 1_555 1_555
H3 C14 0.949 1_555 1_555
C15 C8 1.422 1_555 1_555
C16 C5 1.437 1_555 1_555
H4 C16 0.950 1_555 1_555
C17 C10 1.394 1_555 1_555
H5 C17 0.950 1_555 1_555
C18 C10 1.422 1_555 1_555
H6 C18 0.950 1_555 1_555
C19 C9 1.402 1_555 1_555
H7 C19 0.950 1_555 1_555
C20 C12 1.437 1_555 1_555
H8 C20 0.950 1_555 1_555
C21 C15 1.394 1_555 1_555
H9 C21 0.949 1_555 1_555
C22 C9 1.434 1_555 1_555
H10 C22 0.950 1_555 1_555
C23 C3 1.437 1_555 1_555
H11 C23 0.950 1_555 1_555
C24 C12 1.389 1_555 1_555
H12 C24 0.950 1_555 1_555
C25 C17 1.382 1_555 1_555
H13 C25 0.950 1_555 1_555
C26 C21 1.378 1_555 1_555
H14 C26 0.950 1_555 1_555
C11 C22 1.344 1_555 1_555
C13 C15 1.424 1_555 1_555
C13 C23 1.343 1_555 1_555
C14 C18 1.347 1_555 1_555
C16 C20 1.350 1_555 1_555
C19 C25 1.389 1_555 1_555
C24 C26 1.390 1_555 1_555
#END
