
#######################################################################
#
#                 Cambridge Crystallographic Data Centre
#                                CCDC
#
#######################################################################
#
# If this CIF has been generated from an entry in the Cambridge
# Structural Database, then it will include bibliographic, chemical,
# crystal, experimental, refinement or atomic coordinate data resulting
# from the CCDC's data processing and validation procedures.
#
#######################################################################

data_CSD_CIF_XIHGEC
_audit_creation_date 2013-09-03
_audit_creation_method CSD-ConQuest-V1
_database_code_CSD XIHGEC
_database_code_depnum_ccdc_archive 'CCDC 958969'
_chemical_formula_sum 'C60 H58'
_chemical_formula_moiety
;
C60 H58
;
_journal_coden_Cambridge 35
_journal_volume 78
_journal_year 2013
_journal_page_first 6202
_journal_name_full 'J.Org.Chem. '
loop_
_publ_author_name
"K.Murayama"
"Y.Sawada"
"K.Noguchi"
"K.Tanaka"
_chemical_name_systematic
;
11,11,23,23-Tetrabutyl-11,23-dihydrotriphenyleno[2',3':5,6]-s-indaceno[1,2-b]t
riphenylene
;
_cell_volume   4267.579
_exptl_crystal_colour 'colorless'
_exptl_crystal_density_diffrn 1.213
_exptl_crystal_description 'block'
_diffrn_ambient_temperature 193
#These two values have been output from a single CSD field.
_refine_ls_R_factor_gt 0.0432
_refine_ls_wR_factor_gt 0.0432
_symmetry_cell_setting orthorhombic
_symmetry_space_group_name_H-M 'P b c a'
_symmetry_Int_Tables_number 61
loop_
_symmetry_equiv_pos_site_id
_symmetry_equiv_pos_as_xyz
1 x,y,z
2 1/2-x,-y,1/2+z
3 1/2+x,1/2-y,-z
4 -x,1/2+y,1/2-z
5 -x,-y,-z
6 -1/2+x,y,-1/2-z
7 -1/2-x,-1/2+y,z
8 x,-1/2-y,-1/2+z
_cell_length_a 16.6507(3)
_cell_length_b 8.3279(1)
_cell_length_c 30.7761(5)
_cell_angle_alpha 90
_cell_angle_beta 90
_cell_angle_gamma 90
_cell_formula_units_Z 4
loop_
_atom_type_symbol
_atom_type_radius_bond
C 0.68
H 0.23
loop_
_atom_site_label
_atom_site_type_symbol
_atom_site_fract_x
_atom_site_fract_y
_atom_site_fract_z
C1 C 0.58444(9) -0.01674(18) 0.00272(5)
H1 H 0.64110 -0.02760 0.00480
C2 C 0.54024(9) 0.05352(17) 0.03630(5)
C3 C 0.45649(9) 0.07010(17) 0.03368(5)
C4 C 0.42287(9) 0.15192(18) 0.07421(5)
C5 C 0.49996(9) 0.18523(18) 0.09964(5)
C6 C 0.56702(9) 0.12636(18) 0.07708(5)
C7 C 0.51077(9) 0.26370(17) 0.13845(5)
H2 H 0.46530 0.30060 0.15420
C8 C 0.58852(9) 0.29046(17) 0.15541(5)
C9 C 0.60114(9) 0.38003(18) 0.19592(5)
C10 C 0.5365(1) 0.43774(19) 0.22081(5)
H3 H 0.48330 0.41210 0.21210
C11 C 0.54769(11) 0.5300(2) 0.25735(5)
H4 H 0.50280 0.56820 0.27330
C12 C 0.62525(12) 0.5668(2) 0.27069(5)
H5 H 0.63360 0.63150 0.29570
C13 C 0.68977(11) 0.5097(2) 0.24773(5)
H6 H 0.74250 0.53420 0.25750
C14 C 0.68003(10) 0.41562(19) 0.21005(5)
C15 C 0.74952(10) 0.35663(19) 0.18560(5)
C16 C 0.82905(10) 0.3869(2) 0.19893(6)
H7 H 0.83810 0.44950 0.22430
C17 C 0.8935(1) 0.3286(2) 0.17643(6)
H8 H 0.94650 0.35020 0.18630
C18 C 0.88165(10) 0.2379(2) 0.13917(6)
H9 H 0.92630 0.19730 0.12340
C19 C 0.8050(1) 0.2073(2) 0.12528(6)
H10 H 0.79730 0.14510 0.09970
C20 C 0.73746(9) 0.26494(18) 0.14765(5)
C21 C 0.65594(9) 0.23274(18) 0.13203(5)
C22 C 0.64328(9) 0.14819(18) 0.09309(5)
H11 H 0.68790 0.10570 0.07770
C23 C 0.36402(9) 0.04139(19) 0.09895(5)
H12 H 0.33960 0.10430 0.12280
H13 H 0.32020 0.01100 0.07880
C24 C 0.39900(9) -0.11171(19) 0.11817(5)
H14 H 0.42670 -0.17260 0.09500
H15 H 0.43940 -0.08310 0.14050
C25 C 0.33519(10) -0.2177(2) 0.13863(6)
H16 H 0.30260 -0.15230 0.15890
H17 H 0.29900 -0.25800 0.11550
C26 C 0.37006(13) -0.3594(2) 0.16309(7)
H18 H 0.32660 -0.43130 0.17210
H19 H 0.39880 -0.32070 0.18880
H20 H 0.40740 -0.41760 0.14420
C27 C 0.37693(9) 0.30773(18) 0.06261(5)
H21 H 0.33080 0.27880 0.04390
H22 H 0.35500 0.35400 0.08980
C28 C 0.42539(10) 0.43673(19) 0.03965(6)
H23 H 0.45440 0.38760 0.01490
H24 H 0.46590 0.48000 0.06010
C29 C 0.37382(11) 0.5747(2) 0.02282(6)
H25 H 0.33650 0.60880 0.04610
H26 H 0.40910 0.66690 0.01590
C30 C 0.32610(13) 0.5317(3) -0.01677(7)
H27 H 0.29190 0.62250 -0.02500
H28 H 0.29250 0.43790 -0.01050
H29 H 0.36270 0.50660 -0.04070
C1D C 0.41556(9) 0.01674(18) -0.00272(5)
H1D H 0.35890 0.02760 -0.00480
C2D C 0.45976(9) -0.05352(17) -0.03630(5)
C3D C 0.54351(9) -0.07010(17) -0.03368(5)
C4D C 0.57713(9) -0.15192(18) -0.07421(5)
C5D C 0.50004(9) -0.18523(18) -0.09964(5)
C6D C 0.43298(9) -0.12636(18) -0.07708(5)
C7D C 0.48923(9) -0.26370(17) -0.13845(5)
H2D H 0.53470 -0.30060 -0.15420
C8D C 0.41148(9) -0.29046(17) -0.15541(5)
C9D C 0.39886(9) -0.38003(18) -0.19592(5)
C10D C 0.4635(1) -0.43774(19) -0.22081(5)
H3D H 0.51670 -0.41210 -0.21210
C11D C 0.45231(11) -0.5300(2) -0.25735(5)
H4D H 0.49720 -0.56820 -0.27330
C12D C 0.37475(12) -0.5668(2) -0.27069(5)
H5D H 0.36640 -0.63150 -0.29570
C13D C 0.31023(11) -0.5097(2) -0.24773(5)
H6D H 0.25750 -0.53420 -0.25750
C14D C 0.31997(10) -0.41562(19) -0.21005(5)
C15D C 0.25048(10) -0.35663(19) -0.18560(5)
C16D C 0.17095(10) -0.3869(2) -0.19893(6)
H7D H 0.16190 -0.44950 -0.22430
C17D C 0.1065(1) -0.3286(2) -0.17643(6)
H8D H 0.05350 -0.35020 -0.18630
C18D C 0.11835(10) -0.2379(2) -0.13917(6)
H9D H 0.07370 -0.19730 -0.12340
C19D C 0.1950(1) -0.2073(2) -0.12528(6)
H10D H 0.20270 -0.14510 -0.09970
C20D C 0.26254(9) -0.26494(18) -0.14765(5)
C21D C 0.34406(9) -0.23274(18) -0.13203(5)
C22D C 0.35672(9) -0.14819(18) -0.09309(5)
H11D H 0.31210 -0.10570 -0.07770
C23D C 0.63598(9) -0.04139(19) -0.09895(5)
H12D H 0.66040 -0.10430 -0.12280
H13D H 0.67980 -0.01100 -0.07880
C24D C 0.60100(9) 0.11171(19) -0.11817(5)
H14D H 0.57330 0.17260 -0.09500
H15D H 0.56060 0.08310 -0.14050
C25D C 0.66481(10) 0.2177(2) -0.13863(6)
H16D H 0.69740 0.15230 -0.15890
H17D H 0.70100 0.25800 -0.11550
C26D C 0.62994(13) 0.3594(2) -0.16309(7)
H18D H 0.67340 0.43130 -0.17210
H19D H 0.60120 0.32070 -0.18880
H20D H 0.59260 0.41760 -0.14420
C27D C 0.62307(9) -0.30773(18) -0.06261(5)
H21D H 0.66920 -0.27880 -0.04390
H22D H 0.64500 -0.35400 -0.08980
C28D C 0.57461(10) -0.43673(19) -0.03965(6)
H23D H 0.54560 -0.38760 -0.01490
H24D H 0.53410 -0.48000 -0.06010
C29D C 0.62618(11) -0.5747(2) -0.02282(6)
H25D H 0.66350 -0.60880 -0.04610
H26D H 0.59090 -0.66690 -0.01590
C30D C 0.67390(13) -0.5317(3) 0.01677(7)
H27D H 0.70810 -0.62250 0.02500
H28D H 0.70750 -0.43790 0.01050
H29D H 0.63730 -0.50660 0.04070
loop_
_geom_bond_atom_site_label_1
_geom_bond_atom_site_label_2
_geom_bond_distance
_geom_bond_site_symmetry_1
_geom_bond_site_symmetry_2
C1 H1 0.950 1_555 1_555
C2 C1 1.397 1_555 1_555
C3 C2 1.404 1_555 1_555
C4 C3 1.528 1_555 1_555
C5 C4 1.529 1_555 1_555
C6 C2 1.464 1_555 1_555
C7 C5 1.373 1_555 1_555
H2 C7 0.950 1_555 1_555
C8 C7 1.414 1_555 1_555
C9 C8 1.468 1_555 1_555
C10 C9 1.406 1_555 1_555
H3 C10 0.950 1_555 1_555
C11 C10 1.375 1_555 1_555
H4 C11 0.949 1_555 1_555
C12 C11 1.389 1_555 1_555
H5 C12 0.950 1_555 1_555
C13 C12 1.371 1_555 1_555
H6 C13 0.950 1_555 1_555
C14 C9 1.415 1_555 1_555
C15 C14 1.465 1_555 1_555
C16 C15 1.409 1_555 1_555
H7 C16 0.951 1_555 1_555
C17 C16 1.366 1_555 1_555
H8 C17 0.950 1_555 1_555
C18 C17 1.387 1_555 1_555
H9 C18 0.950 1_555 1_555
C19 C18 1.370 1_555 1_555
H10 C19 0.951 1_555 1_555
C20 C15 1.410 1_555 1_555
C21 C8 1.417 1_555 1_555
C22 C6 1.374 1_555 1_555
H11 C22 0.949 1_555 1_555
C23 C4 1.545 1_555 1_555
H12 C23 0.989 1_555 1_555
H13 C23 0.990 1_555 1_555
C24 C23 1.521 1_555 1_555
H14 C24 0.989 1_555 1_555
H15 C24 0.991 1_555 1_555
C25 C24 1.518 1_555 1_555
H16 C25 0.990 1_555 1_555
H17 C25 0.991 1_555 1_555
C26 C25 1.515 1_555 1_555
H18 C26 0.979 1_555 1_555
H19 C26 0.979 1_555 1_555
H20 C26 0.980 1_555 1_555
C27 C4 1.548 1_555 1_555
H21 C27 0.990 1_555 1_555
H22 C27 0.991 1_555 1_555
C28 C27 1.518 1_555 1_555
H23 C28 0.990 1_555 1_555
H24 C28 0.990 1_555 1_555
C29 C28 1.525 1_555 1_555
H25 C29 0.990 1_555 1_555
H26 C29 0.990 1_555 1_555
C30 C29 1.498 1_555 1_555
H27 C30 0.980 1_555 1_555
H28 C30 0.980 1_555 1_555
H29 C30 0.979 1_555 1_555
C1D C3 1.385 1_555 1_555
H1D C1D 0.950 1_555 1_555
C2D C1D 1.397 1_555 1_555
C3D C1 1.385 1_555 1_555
C4D C3D 1.528 1_555 1_555
C5D C4D 1.529 1_555 1_555
C6D C2D 1.464 1_555 1_555
C7D C5D 1.373 1_555 1_555
H2D C7D 0.950 1_555 1_555
C8D C7D 1.414 1_555 1_555
C9D C8D 1.468 1_555 1_555
C10D C9D 1.406 1_555 1_555
H3D C10D 0.950 1_555 1_555
C11D C10D 1.375 1_555 1_555
H4D C11D 0.949 1_555 1_555
C12D C11D 1.389 1_555 1_555
H5D C12D 0.950 1_555 1_555
C13D C12D 1.371 1_555 1_555
H6D C13D 0.950 1_555 1_555
C14D C9D 1.415 1_555 1_555
C15D C14D 1.465 1_555 1_555
C16D C15D 1.409 1_555 1_555
H7D C16D 0.951 1_555 1_555
C17D C16D 1.366 1_555 1_555
H8D C17D 0.950 1_555 1_555
C18D C17D 1.387 1_555 1_555
H9D C18D 0.950 1_555 1_555
C19D C18D 1.370 1_555 1_555
H10D C19D 0.951 1_555 1_555
C20D C15D 1.410 1_555 1_555
C21D C8D 1.417 1_555 1_555
C22D C6D 1.374 1_555 1_555
H11D C22D 0.949 1_555 1_555
C23D C4D 1.545 1_555 1_555
H12D C23D 0.989 1_555 1_555
H13D C23D 0.990 1_555 1_555
C24D C23D 1.521 1_555 1_555
H14D C24D 0.989 1_555 1_555
H15D C24D 0.991 1_555 1_555
C25D C24D 1.518 1_555 1_555
H16D C25D 0.990 1_555 1_555
H17D C25D 0.991 1_555 1_555
C26D C25D 1.515 1_555 1_555
H18D C26D 0.979 1_555 1_555
H19D C26D 0.979 1_555 1_555
H20D C26D 0.980 1_555 1_555
C27D C4D 1.548 1_555 1_555
H21D C27D 0.990 1_555 1_555
H22D C27D 0.991 1_555 1_555
C28D C27D 1.518 1_555 1_555
H23D C28D 0.990 1_555 1_555
H24D C28D 0.990 1_555 1_555
C29D C28D 1.525 1_555 1_555
H25D C29D 0.990 1_555 1_555
H26D C29D 0.990 1_555 1_555
C30D C29D 1.498 1_555 1_555
H27D C30D 0.980 1_555 1_555
H28D C30D 0.980 1_555 1_555
H29D C30D 0.979 1_555 1_555
C5 C6 1.403 1_555 1_555
C13 C14 1.409 1_555 1_555
C19 C20 1.403 1_555 1_555
C20 C21 1.465 1_555 1_555
C21 C22 1.406 1_555 1_555
C2D C3D 1.404 1_555 1_555
C5D C6D 1.403 1_555 1_555
C13D C14D 1.409 1_555 1_555
C19D C20D 1.403 1_555 1_555
C20D C21D 1.465 1_555 1_555
C21D C22D 1.406 1_555 1_555
#END
