
#######################################################################
#
#                 Cambridge Crystallographic Data Centre
#                                CCDC
#
#######################################################################
#
# If this CIF has been generated from an entry in the Cambridge
# Structural Database, then it will include bibliographic, chemical,
# crystal, experimental, refinement or atomic coordinate data resulting
# from the CCDC's data processing and validation procedures.
#
#######################################################################

data_CSD_CIF_XIRQUK01
_audit_creation_date 2015-02-02
_audit_creation_method CSD-ConQuest-V1
_database_code_CSD XIRQUK01
_database_code_depnum_ccdc_archive 'CCDC 1013417'
_chemical_formula_sum 'C24 H16'
_chemical_formula_moiety
;
C24 H16
;
_journal_coden_Cambridge 1475
_journal_volume 6
_journal_year 2015
_journal_page_first 1816
_journal_name_full 'Chemical Science '
loop_
_publ_author_name
"K.D.Collins"
"R.Honeker"
"S.Vasquez-Cespedes"
"D.-T.D.Tang"
"F.Glorius"
_chemical_name_systematic
;
1-Phenyltriphenylene
;
_cell_volume   3104.233
_exptl_crystal_colour 'colorless'
_exptl_crystal_density_diffrn 1.303
_exptl_crystal_description 'plate'
_diffrn_ambient_temperature 223
#These two values have been output from a single CSD field.
_refine_ls_R_factor_gt 0.0497
_refine_ls_wR_factor_gt 0.0497
_symmetry_cell_setting monoclinic
_symmetry_space_group_name_H-M 'P 21/c'
_symmetry_Int_Tables_number 14
loop_
_symmetry_equiv_pos_site_id
_symmetry_equiv_pos_as_xyz
1 x,y,z
2 -x,1/2+y,1/2-z
3 -x,-y,-z
4 x,-1/2-y,-1/2+z
_cell_length_a 19.1157(9)
_cell_length_b 5.7556(3)
_cell_length_c 29.6669(11)
_cell_angle_alpha 90
_cell_angle_beta 108.002(3)
_cell_angle_gamma 90
_cell_formula_units_Z 8
loop_
_atom_type_symbol
_atom_type_radius_bond
C 0.68
H 0.23
loop_
_atom_site_label
_atom_site_type_symbol
_atom_site_fract_x
_atom_site_fract_y
_atom_site_fract_z
C1 C 0.49013(13) 0.2399(4) 0.41143(8)
C2 C 0.53775(15) 0.0624(4) 0.43214(8)
H1 H 0.52500 -0.04020 0.45300
C3 C 0.60392(15) 0.0319(5) 0.42301(9)
H2 H 0.63420 -0.09550 0.43600
C4 C 0.62489(15) 0.1881(5) 0.39498(8)
H3 H 0.67130 0.17290 0.39060
C5 C 0.57858(13) 0.3707(4) 0.37255(7)
C6 C 0.60323(13) 0.5432(4) 0.34426(8)
C7 C 0.67617(15) 0.5442(5) 0.34217(9)
H4 H 0.70890 0.42710 0.35790
C8 C 0.70015(17) 0.7124(6) 0.31764(10)
H5 H 0.74910 0.71110 0.31720
C9 C 0.65259(17) 0.8833(6) 0.29358(9)
H6 H 0.66890 0.99660 0.27630
C10 C 0.58171(16) 0.8880(5) 0.29479(8)
H7 H 0.54970 1.00500 0.27820
C11 C 0.55571(13) 0.7213(4) 0.32042(7)
C12 C 0.47991(13) 0.7265(4) 0.32183(7)
C13 C 0.42958(15) 0.8940(5) 0.29645(8)
H8 H 0.44610 1.01120 0.28020
C14 C 0.35744(15) 0.8918(5) 0.29472(9)
H9 H 0.32540 1.00910 0.27830
C15 C 0.33165(14) 0.7156(5) 0.31726(8)
H10 H 0.28150 0.70840 0.31480
C16 C 0.37939(13) 0.5523(4) 0.34301(8)
H11 H 0.36110 0.43240 0.35770
C17 C 0.45532(13) 0.5583(4) 0.34820(7)
C18 C 0.50768(13) 0.3879(4) 0.37787(7)
C19 C 0.42754(13) 0.2773(4) 0.43059(7)
C20 C 0.37539(14) 0.1053(4) 0.42891(8)
H12 H 0.37710 -0.03530 0.41310
C21 C 0.32126(15) 0.1391(5) 0.45021(9)
H13 H 0.28590 0.02280 0.44810
C22 C 0.31857(14) 0.3409(5) 0.47435(8)
H14 H 0.28190 0.36220 0.48900
C23 C 0.37015(14) 0.5116(5) 0.47694(8)
H15 H 0.36910 0.64920 0.49380
C24 C 0.42345(13) 0.4811(4) 0.45491(8)
H16 H 0.45760 0.60040 0.45640
C25 C -0.00609(12) -0.2606(4) 0.08526(7)
C26 C 0.04867(14) -0.4170(4) 0.08499(8)
H17 H 0.04060 -0.52340 0.05980
C27 C 0.11533(14) -0.4205(5) 0.12101(8)
H18 H 0.15110 -0.53230 0.12080
C28 C 0.12886(13) -0.2613(4) 0.15671(8)
H19 H 0.17520 -0.25890 0.18000
C29 C 0.07478(12) -0.1004(4) 0.15938(7)
C30 C 0.09102(12) 0.0741(4) 0.19727(7)
C31 C 0.15857(13) 0.0747(4) 0.23432(8)
H20 H 0.19210 -0.04700 0.23620
C32 C 0.17626(14) 0.2481(5) 0.26745(8)
H21 H 0.22190 0.24580 0.29140
C33 C 0.12723(14) 0.4264(5) 0.26572(8)
H22 H 0.13970 0.54700 0.28810
C34 C 0.06022(13) 0.4269(4) 0.23117(8)
H23 H 0.02670 0.54710 0.23070
C35 C 0.04037(12) 0.2516(4) 0.19643(7)
C36 C -0.03364(12) 0.2395(4) 0.16225(7)
C37 C -0.08810(13) 0.4014(4) 0.16342(8)
H24 H -0.07460 0.53450 0.18250
C38 C -0.16057(13) 0.3698(4) 0.13742(8)
H25 H -0.19590 0.48250 0.13800
C39 C -0.18127(13) 0.1701(4) 0.11033(7)
H26 H -0.23120 0.14060 0.09460
C40 C -0.12845(12) 0.0156(4) 0.10657(7)
H27 H -0.14310 -0.11760 0.08770
C41 C -0.05299(12) 0.0512(4) 0.13024(7)
C42 C 0.00459(12) -0.1053(4) 0.12433(7)
C43 C -0.07142(12) -0.2608(4) 0.04177(7)
C44 C -0.11699(14) -0.4542(4) 0.02967(8)
H28 H -0.10780 -0.58380 0.05000
C45 C -0.17562(14) -0.4594(5) -0.01172(8)
H29 H -0.20660 -0.59010 -0.01900
C46 C -0.18860(14) -0.2733(5) -0.04223(9)
H30 H -0.22860 -0.27620 -0.07030
C47 C -0.14275(15) -0.0818(5) -0.03163(8)
H31 H -0.15080 0.04380 -0.05290
C48 C -0.08518(14) -0.0746(4) 0.01005(8)
H32 H -0.05480 0.05730 0.01720
loop_
_geom_bond_atom_site_label_1
_geom_bond_atom_site_label_2
_geom_bond_distance
_geom_bond_site_symmetry_1
_geom_bond_site_symmetry_2
C1 C2 1.380 1_555 1_555
C2 H1 0.940 1_555 1_555
C3 C2 1.384 1_555 1_555
H2 C3 0.940 1_555 1_555
C4 C3 1.366 1_555 1_555
H3 C4 0.940 1_555 1_555
C5 C4 1.402 1_555 1_555
C6 C5 1.469 1_555 1_555
C7 C6 1.415 1_555 1_555
H4 C7 0.940 1_555 1_555
C8 C7 1.372 1_555 1_555
H5 C8 0.940 1_555 1_555
C9 C8 1.379 1_555 1_555
H6 C9 0.940 1_555 1_555
C10 C9 1.367 1_555 1_555
H7 C10 0.940 1_555 1_555
C11 C6 1.407 1_555 1_555
C12 C11 1.463 1_555 1_555
C13 C12 1.405 1_555 1_555
H8 C13 0.939 1_555 1_555
C14 C13 1.364 1_555 1_555
H9 C14 0.940 1_555 1_555
C15 C14 1.387 1_555 1_555
H10 C15 0.940 1_555 1_555
C16 C15 1.367 1_555 1_555
H11 C16 0.939 1_555 1_555
C17 C12 1.413 1_555 1_555
C18 C1 1.427 1_555 1_555
C19 C1 1.490 1_555 1_555
C20 C19 1.395 1_555 1_555
H12 C20 0.941 1_555 1_555
C21 C20 1.383 1_555 1_555
H13 C21 0.940 1_555 1_555
C22 C21 1.374 1_555 1_555
H14 C22 0.940 1_555 1_555
C23 C22 1.377 1_555 1_555
H15 C23 0.940 1_555 1_555
C24 C19 1.392 1_555 1_555
H16 C24 0.939 1_555 1_555
C25 C26 1.382 1_555 1_555
C26 H17 0.941 1_555 1_555
C27 C26 1.387 1_555 1_555
H18 C27 0.940 1_555 1_555
C28 C27 1.363 1_555 1_555
H19 C28 0.940 1_555 1_555
C29 C28 1.408 1_555 1_555
C30 C29 1.467 1_555 1_555
C31 C30 1.414 1_555 1_555
H20 C31 0.939 1_555 1_555
C32 C31 1.368 1_555 1_555
H21 C32 0.940 1_555 1_555
C33 C32 1.380 1_555 1_555
H22 C33 0.939 1_555 1_555
C34 C33 1.371 1_555 1_555
H23 C34 0.940 1_555 1_555
C35 C30 1.402 1_555 1_555
C36 C35 1.466 1_555 1_555
C37 C36 1.406 1_555 1_555
H24 C37 0.940 1_555 1_555
C38 C37 1.374 1_555 1_555
H25 C38 0.940 1_555 1_555
C39 C38 1.388 1_555 1_555
H26 C39 0.939 1_555 1_555
C40 C39 1.376 1_555 1_555
H27 C40 0.940 1_555 1_555
C41 C36 1.413 1_555 1_555
C42 C25 1.428 1_555 1_555
C43 C25 1.493 1_555 1_555
C44 C43 1.390 1_555 1_555
H28 C44 0.941 1_555 1_555
C45 C44 1.384 1_555 1_555
H29 C45 0.940 1_555 1_555
C46 C45 1.375 1_555 1_555
H30 C46 0.941 1_555 1_555
C47 C46 1.383 1_555 1_555
H31 C47 0.940 1_555 1_555
C48 C43 1.397 1_555 1_555
H32 C48 0.939 1_555 1_555
C5 C18 1.416 1_555 1_555
C10 C11 1.407 1_555 1_555
C16 C17 1.412 1_555 1_555
C17 C18 1.481 1_555 1_555
C23 C24 1.381 1_555 1_555
C29 C42 1.421 1_555 1_555
C34 C35 1.408 1_555 1_555
C40 C41 1.411 1_555 1_555
C41 C42 1.474 1_555 1_555
C47 C48 1.379 1_555 1_555
#END
