
#######################################################################
#
#                 Cambridge Crystallographic Data Centre
#                                CCDC
#
#######################################################################
#
# If this CIF has been generated from an entry in the Cambridge
# Structural Database, then it will include bibliographic, chemical,
# crystal, experimental, refinement or atomic coordinate data resulting
# from the CCDC's data processing and validation procedures.
#
#######################################################################

data_CSD_CIF_XIRQUK
_audit_creation_date 2002-06-27
_audit_creation_method CSD-ConQuest-V1
_database_code_CSD XIRQUK
_database_code_depnum_ccdc_archive 'CCDC 1296888'
_chemical_formula_sum 'C24 H16'
_chemical_formula_moiety
;
C24 H16
;
_journal_coden_Cambridge 579
_journal_volume 20
_journal_year 2001
_journal_page_first 2759
_journal_name_full 'Organometallics '
loop_
_publ_author_name
"N.Simhai"
"C.N.Iverson"
"B.I.Edelbach"
"W.D.Jones"
_chemical_name_systematic
;
4-Phenyl-benzo(l)phenanthrene
;
_chemical_name_common
;
Phenylterphenylene
;
_cell_volume   3111.155
_exptl_special_details
;
The supplementary temperature is 183 K

;
_diffrn_ambient_temperature 193
#These two values have been output from a single CSD field.
_refine_ls_R_factor_gt 0.0839
_refine_ls_wR_factor_gt 0.0839
_symmetry_cell_setting monoclinic
_symmetry_space_group_name_H-M 'P 21/c'
_symmetry_Int_Tables_number 14
loop_
_symmetry_equiv_pos_site_id
_symmetry_equiv_pos_as_xyz
1 x,y,z
2 -x,1/2+y,1/2-z
3 -x,-y,-z
4 x,-1/2-y,-1/2+z
_cell_length_a 19.1209(11)
_cell_length_b 5.7541(3)
_cell_length_c 29.742(2)
_cell_angle_alpha 90
_cell_angle_beta 108.057(2)
_cell_angle_gamma 90
_cell_formula_units_Z 8
loop_
_atom_type_symbol
_atom_type_radius_bond
C 0.68
H 0.23
loop_
_atom_site_label
_atom_site_type_symbol
_atom_site_fract_x
_atom_site_fract_y
_atom_site_fract_z
C1 C 0.5055(2) 0.7589(7) 0.4146(1)
C2 C 0.4509(2) 0.9166(7) 0.4147(2)
C3 C 0.3845(2) 0.9170(8) 0.3790(2)
C4 C 0.3704(2) 0.7584(8) 0.3430(2)
C5 C 0.4254(2) 0.5974(7) 0.3406(1)
C6 C 0.4088(2) 0.4226(7) 0.3024(1)
C7 C 0.3418(2) 0.4222(8) 0.2657(2)
C8 C 0.3238(2) 0.2486(8) 0.2321(2)
C9 C 0.3735(2) 0.0684(8) 0.2341(2)
C10 C 0.4405(2) 0.0684(7) 0.2689(1)
C11 C 0.4601(2) 0.2443(7) 0.3037(1)
C12 C 0.5341(2) 0.2575(7) 0.3381(1)
C13 C 0.5883(2) 0.0956(7) 0.3371(1)
C14 C 0.6604(2) 0.1263(7) 0.3632(1)
C15 C 0.6816(2) 0.3271(7) 0.3905(1)
C16 C 0.6284(2) 0.4821(7) 0.3938(1)
C17 C 0.5529(2) 0.4469(7) 0.3698(1)
C18 C 0.4949(2) 0.6036(7) 0.3756(1)
C19 C 0.5711(2) 0.7592(8) 0.4586(1)
C20 C 0.5851(2) 0.5729(8) 0.4904(2)
C21 C 0.6423(2) 0.5800(8) 0.5317(2)
C22 C 0.6883(2) 0.7716(9) 0.5427(2)
C23 C 0.6751(2) 0.9583(8) 0.5118(2)
C24 C 0.6169(2) 0.9537(7) 0.4708(2)
H1 H 0.4592(2) 1.0261(7) 0.4398(2)
H2 H 0.3482(2) 1.0288(8) 0.3795(2)
H3 H 0.3235(2) 0.7559(8) 0.3196(2)
H4 H 0.3079(2) 0.5451(8) 0.2639(2)
H5 H 0.2778(2) 0.2516(8) 0.2078(2)
H6 H 0.3610(2) -0.0538(8) 0.2115(2)
H7 H 0.4745(2) -0.0528(7) 0.2695(1)
H8 H 0.5747(2) -0.0389(7) 0.3178(1)
H9 H 0.6959(2) 0.0118(7) 0.3627(1)
H10 H 0.7320(2) 0.3563(7) 0.4066(1)
H11 H 0.6430(2) 0.6170(7) 0.4128(1)
H12 H 0.5545(2) 0.4393(8) 0.4832(2)
H13 H 0.6505(2) 0.4525(8) 0.5530(2)
H14 H 0.7285(2) 0.7749(9) 0.5711(2)
H15 H 0.7065(2) 1.0903(8) 0.5191(2)
H16 H 0.6076(2) 1.0849(7) 0.4505(2)
C25 C 0.0100(2) 1.2590(7) 0.0885(1)
C26 C -0.0382(3) 1.4373(8) 0.0682(2)
C27 C -0.1044(3) 1.4666(9) 0.0774(2)
C28 C -0.1256(3) 1.3113(8) 0.1052(2)
C29 C -0.0784(2) 1.1270(8) 0.1277(1)
C30 C -0.1031(2) 0.9555(8) 0.1562(1)
C31 C -0.1759(2) 0.9549(9) 0.1581(2)
C32 C -0.1991(3) 0.7862(10) 0.1828(2)
C33 C -0.1522(3) 0.6137(9) 0.2070(2)
C34 C -0.0814(3) 0.6099(9) 0.2056(2)
C35 C -0.0553(2) 0.7758(8) 0.1798(1)
C36 C 0.0209(2) 0.7730(7) 0.1784(1)
C37 C 0.0711(2) 0.6030(8) 0.2036(2)
C38 C 0.1428(3) 0.6044(8) 0.2047(2)
C39 C 0.1686(2) 0.7824(8) 0.1823(1)
C40 C 0.1210(2) 0.9466(8) 0.1568(1)
C41 C 0.0450(2) 0.9403(7) 0.1518(1)
C42 C -0.0079(2) 1.1091(7) 0.1222(1)
C43 C 0.0726(2) 1.2216(8) 0.0688(1)
C44 C 0.0763(2) 1.0171(7) 0.0446(1)
C45 C 0.1296(2) 0.9873(8) 0.0226(2)
C46 C 0.1807(2) 1.1589(9) 0.0251(2)
C47 C 0.1779(2) 1.3601(9) 0.0490(2)
C48 C 0.1247(2) 1.3947(8) 0.0704(1)
H17 H -0.0256(3) 1.5426(8) 0.0473(2)
H18 H -0.1351(3) 1.5952(9) 0.0642(2)
H19 H -0.1726(3) 1.3266(8) 0.1095(2)
H20 H -0.2092(2) 1.0726(9) 0.1421(2)
H21 H -0.2485(3) 0.7881(10) 0.1833(2)
H22 H -0.1689(3) 0.4994(9) 0.2243(2)
H23 H -0.0489(3) 0.4922(9) 0.2224(2)
H24 H 0.0544(2) 0.4849(8) 0.2202(2)
H25 H 0.1751(3) 0.4843(8) 0.2207(2)
H26 H 0.2193(2) 0.7898(8) 0.1848(1)
H27 H 0.1394(2) 1.0681(8) 0.1420(1)
H28 H 0.0417(2) 0.8966(7) 0.0431(1)
H29 H 0.1309(2) 0.8480(8) 0.0058(2)
H30 H 0.2177(2) 1.1379(9) 0.0102(2)
H31 H 0.2135(2) 1.4779(9) 0.0508(2)
H32 H 0.1231(2) 1.5368(8) 0.0863(1)
loop_
_geom_bond_atom_site_label_1
_geom_bond_atom_site_label_2
_geom_bond_distance
_geom_bond_site_symmetry_1
_geom_bond_site_symmetry_2
C1 C2 1.384 1_555 1_555
C2 C3 1.380 1_555 1_555
C3 C4 1.369 1_555 1_555
C4 C5 1.420 1_555 1_555
C5 C6 1.476 1_555 1_555
C6 C7 1.402 1_555 1_555
C7 C8 1.379 1_555 1_555
C8 C9 1.395 1_555 1_555
C9 C10 1.375 1_555 1_555
C10 C11 1.413 1_555 1_555
C11 C6 1.412 1_555 1_555
C12 C11 1.469 1_555 1_555
C13 C12 1.401 1_555 1_555
C14 C13 1.368 1_555 1_555
C15 C14 1.398 1_555 1_555
C16 C15 1.379 1_555 1_555
C17 C12 1.413 1_555 1_555
C18 C1 1.428 1_555 1_555
C19 C1 1.506 1_555 1_555
C20 C19 1.399 1_555 1_555
C21 C20 1.369 1_555 1_555
C22 C21 1.385 1_555 1_555
C23 C22 1.385 1_555 1_555
C24 C19 1.398 1_555 1_555
H1 C2 0.952 1_555 1_555
H2 C3 0.950 1_555 1_555
H3 C4 0.950 1_555 1_555
H4 C7 0.950 1_555 1_555
H5 C8 0.950 1_555 1_555
H6 C9 0.951 1_555 1_555
H7 C10 0.950 1_555 1_555
H8 C13 0.951 1_555 1_555
H9 C14 0.949 1_555 1_555
H10 C15 0.949 1_555 1_555
H11 C16 0.950 1_555 1_555
H12 C20 0.949 1_555 1_555
H13 C21 0.950 1_555 1_555
H14 C22 0.950 1_555 1_555
H15 C23 0.951 1_555 1_555
H16 C24 0.948 1_555 1_555
C25 C26 1.386 1_555 1_555
C26 C27 1.386 1_555 1_555
C27 C28 1.362 1_555 1_555
C28 C29 1.419 1_555 1_555
C29 C30 1.471 1_555 1_555
C30 C31 1.411 1_555 1_555
C31 C32 1.371 1_555 1_555
C32 C33 1.381 1_555 1_555
C33 C34 1.367 1_555 1_555
C34 C35 1.409 1_555 1_555
C35 C30 1.414 1_555 1_555
C36 C35 1.471 1_555 1_555
C37 C36 1.412 1_555 1_555
C38 C37 1.361 1_555 1_555
C39 C38 1.393 1_555 1_555
C40 C39 1.367 1_555 1_555
C41 C36 1.411 1_555 1_555
C42 C25 1.442 1_555 1_555
C43 C25 1.502 1_555 1_555
C44 C43 1.393 1_555 1_555
C45 C44 1.382 1_555 1_555
C46 C45 1.375 1_555 1_555
C47 C46 1.368 1_555 1_555
C48 C43 1.399 1_555 1_555
H17 C26 0.951 1_555 1_555
H18 C27 0.950 1_555 1_555
H19 C28 0.950 1_555 1_555
H20 C31 0.950 1_555 1_555
H21 C32 0.949 1_555 1_555
H22 C33 0.949 1_555 1_555
H23 C34 0.950 1_555 1_555
H24 C37 0.951 1_555 1_555
H25 C38 0.950 1_555 1_555
H26 C39 0.950 1_555 1_555
H27 C40 0.950 1_555 1_555
H28 C44 0.950 1_555 1_555
H29 C45 0.949 1_555 1_555
H30 C46 0.952 1_555 1_555
H31 C47 0.950 1_555 1_555
H32 C48 0.950 1_555 1_555
C5 C18 1.412 1_555 1_555
C16 C17 1.413 1_555 1_555
C17 C18 1.480 1_555 1_555
C23 C24 1.373 1_555 1_555
C29 C42 1.411 1_555 1_555
C40 C41 1.415 1_555 1_555
C41 C42 1.480 1_555 1_555
C47 C48 1.371 1_555 1_555
#END
