
#######################################################################
#
#                 Cambridge Crystallographic Data Centre
#                                CCDC
#
#######################################################################
#
# If this CIF has been generated from an entry in the Cambridge
# Structural Database, then it will include bibliographic, chemical,
# crystal, experimental, refinement or atomic coordinate data resulting
# from the CCDC's data processing and validation procedures.
#
#######################################################################

data_CSD_CIF_XITNUK
_audit_creation_date 2008-06-10
_audit_creation_method CSD-ConQuest-V1
_database_code_CSD XITNUK
_database_code_depnum_ccdc_archive 'CCDC 296864'
_chemical_formula_sum 'C18 H18'
_chemical_formula_moiety
;
C18 H18
;
_journal_coden_Cambridge 1489
_journal_volume 474
_journal_year 2007
_journal_page_first 119
_journal_name_full 'Mol.Cryst.Liq.Cryst. '
loop_
_publ_author_name
"C.Kitamura"
"Y.Abe"
"N.Kawatsuki"
"A.Yoneda"
"K.Asada"
"T.Kobayashi"
"H.Naito"
_chemical_name_systematic
;
1,4,5,8-Tetramethylanthracene
;
_chemical_melting_point 492.15
_cell_volume    646.899
_exptl_crystal_colour 'colorless'
_exptl_crystal_density_diffrn 1.203
_exptl_special_details
;
Melting point range 492.15-494.15K
fluorescent

;
_exptl_crystal_description 'Needle'
_exptl_crystal_preparation 'n-hexane'
_diffrn_ambient_temperature 223.2
#These two values have been output from a single CSD field.
_refine_ls_R_factor_gt 0.0532
_refine_ls_wR_factor_gt 0.0532
_symmetry_cell_setting monoclinic
_symmetry_space_group_name_H-M 'P 21/c'
_symmetry_Int_Tables_number 14
loop_
_symmetry_equiv_pos_site_id
_symmetry_equiv_pos_as_xyz
1 x,y,z
2 -x,1/2+y,1/2-z
3 -x,-y,-z
4 x,-1/2-y,-1/2+z
_cell_length_a 9.880(2)
_cell_length_b 5.0470(5)
_cell_length_c 13.239(2)
_cell_angle_alpha 90
_cell_angle_beta 101.501(7)
_cell_angle_gamma 90
_cell_formula_units_Z 2
loop_
_atom_type_symbol
_atom_type_radius_bond
C 0.68
H 0.23
loop_
_atom_site_label
_atom_site_type_symbol
_atom_site_fract_x
_atom_site_fract_y
_atom_site_fract_z
C1 C 0.7256(1) 1.1954(3) 0.9915(1)
C2 C 0.6223(1) 1.0946(3) 0.9179(1)
C3 C 0.6470(2) 0.9009(3) 0.8459(1)
C4 C 0.7758(1) 0.8025(3) 0.8472(1)
C5 C 0.8894(1) 0.9003(3) 0.92398(9)
C6 C 0.8641(1) 1.0991(3) 0.99594(9)
C7 C 1.0242(1) 0.8074(3) 0.93081(9)
C8 C 0.6974(2) 1.4046(3) 1.0651(1)
C9 C 0.7993(2) 0.5962(3) 0.7711(1)
H1 H 0.528(2) 1.148(4) 0.913(2)
H2 H 0.566(2) 0.833(4) 0.791(2)
H3 H 1.040(2) 0.666(3) 0.879(1)
H4 H 0.592(3) 1.419(5) 1.060(2)
H5 H 0.735(2) 1.359(4) 1.135(2)
H6 H 0.736(2) 1.577(4) 1.053(2)
H7 H 0.712(2) 0.552(4) 0.726(2)
H8 H 0.835(2) 0.430(4) 0.805(2)
H9 H 0.870(2) 0.654(4) 0.732(1)
C1B C 1.2744(1) 0.8046(3) 1.0085(1)
C2B C 1.3777(1) 0.9054(3) 1.0821(1)
C3B C 1.3530(2) 1.0991(3) 1.1541(1)
C4B C 1.2242(1) 1.1975(3) 1.1528(1)
C5B C 1.1106(1) 1.0997(3) 1.07602(9)
C6B C 1.1359(1) 0.9009(3) 1.00406(9)
C7B C 0.9758(1) 1.1926(3) 1.06919(9)
C8B C 1.3026(2) 0.5954(3) 0.9349(1)
C9B C 1.2007(2) 1.4038(3) 1.2289(1)
H1B H 1.472(2) 0.852(4) 1.087(2)
H2B H 1.434(2) 1.167(4) 1.209(2)
H3B H 0.960(2) 1.334(3) 1.121(1)
H4B H 1.408(3) 0.581(5) 0.940(2)
H5B H 1.265(2) 0.641(4) 0.865(2)
H6B H 1.264(2) 0.423(4) 0.947(2)
H7B H 1.288(2) 1.448(4) 1.274(2)
H8B H 1.165(2) 1.570(4) 1.195(2)
H9B H 1.130(2) 1.346(4) 1.268(1)
loop_
_geom_bond_atom_site_label_1
_geom_bond_atom_site_label_2
_geom_bond_distance
_geom_bond_site_symmetry_1
_geom_bond_site_symmetry_2
C1 C2 1.361 1_555 1_555
C2 C3 1.420 1_555 1_555
C3 C4 1.363 1_555 1_555
C4 C5 1.443 1_555 1_555
C5 C6 1.439 1_555 1_555
C6 C1 1.442 1_555 1_555
C7 C5 1.398 1_555 1_555
C8 C1 1.500 1_555 1_555
C9 C4 1.499 1_555 1_555
H1 C2 0.960 1_555 1_555
H2 C3 1.027 1_555 1_555
H3 C7 1.023 1_555 1_555
H4 C8 1.033 1_555 1_555
H5 C8 0.954 1_555 1_555
H6 C8 0.976 1_555 1_555
H7 C9 0.972 1_555 1_555
H8 C9 0.983 1_555 1_555
H9 C9 0.993 1_555 1_555
C1B C2B 1.361 1_555 1_555
C2B C3B 1.420 1_555 1_555
C3B C4B 1.363 1_555 1_555
C4B C5B 1.443 1_555 1_555
C5B C6B 1.439 1_555 1_555
C6B C7 1.398 1_555 1_555
C7B C6 1.398 1_555 1_555
C8B C1B 1.500 1_555 1_555
C9B C4B 1.499 1_555 1_555
H1B C2B 0.960 1_555 1_555
H2B C3B 1.027 1_555 1_555
H3B C7B 1.023 1_555 1_555
H4B C8B 1.033 1_555 1_555
H5B C8B 0.954 1_555 1_555
H6B C8B 0.976 1_555 1_555
H7B C9B 0.972 1_555 1_555
H8B C9B 0.983 1_555 1_555
H9B C9B 0.993 1_555 1_555
C1B C6B 1.442 1_555 1_555
C5B C7B 1.398 1_555 1_555
#END
