
#######################################################################
#
#                 Cambridge Crystallographic Data Centre
#                                CCDC
#
#######################################################################
#
# If this CIF has been generated from an entry in the Cambridge
# Structural Database, then it will include bibliographic, chemical,
# crystal, experimental, refinement or atomic coordinate data resulting
# from the CCDC's data processing and validation procedures.
#
#######################################################################

data_CSD_CIF_XITPIA
_audit_creation_date 2008-06-10
_audit_creation_method CSD-ConQuest-V1
_database_code_CSD XITPIA
_database_code_depnum_ccdc_archive 'CCDC 296867'
_chemical_formula_sum 'C38 H58'
_chemical_formula_moiety
;
C38 H58
;
_journal_coden_Cambridge 1489
_journal_volume 474
_journal_year 2007
_journal_page_first 119
_journal_name_full 'Mol.Cryst.Liq.Cryst. '
loop_
_publ_author_name
"C.Kitamura"
"Y.Abe"
"N.Kawatsuki"
"A.Yoneda"
"K.Asada"
"T.Kobayashi"
"H.Naito"
_chemical_name_systematic
;
1,4,5,8-Tetrahexylanthracene
;
_chemical_melting_point 367.15
_cell_volume    817.656
_exptl_crystal_colour 'yellow'
_exptl_crystal_density_diffrn 1.046
_exptl_special_details
;
Melting point range 367.15-369.15K
fluorescent

;
_exptl_crystal_description 'Needle'
_diffrn_ambient_temperature 173.2
#These two values have been output from a single CSD field.
_refine_ls_R_factor_gt 0.0947
_refine_ls_wR_factor_gt 0.0947
_symmetry_cell_setting triclinic
_symmetry_space_group_name_H-M 'P -1'
_symmetry_Int_Tables_number 2
loop_
_symmetry_equiv_pos_site_id
_symmetry_equiv_pos_as_xyz
1 x,y,z
2 -x,-y,-z
_cell_length_a 4.731(4)
_cell_length_b 12.81(1)
_cell_length_c 14.13(1)
_cell_angle_alpha 78.45(2)
_cell_angle_beta 77.32(2)
_cell_angle_gamma 84.94(3)
_cell_formula_units_Z 1
loop_
_atom_type_symbol
_atom_type_radius_bond
C 0.68
H 0.23
loop_
_atom_site_label
_atom_site_type_symbol
_atom_site_fract_x
_atom_site_fract_y
_atom_site_fract_z
C1 C 0.5408(5) 0.2752(2) 0.0729(2)
C2 C 0.3385(6) 0.2336(2) 0.1529(2)
C3 C 0.1082(6) 0.2967(2) 0.1988(2)
C4 C 0.0769(5) 0.4036(2) 0.1658(2)
C5 C 0.2894(5) 0.4530(2) 0.0822(2)
C6 C 0.5200(4) 0.3880(2) 0.0360(2)
C7 C 0.2766(5) 0.5624(2) 0.0446(2)
C8 C 0.7681(6) 0.2043(2) 0.0214(2)
C9 C 0.6812(6) 0.1784(2) -0.0700(2)
C10 C 0.9207(6) 0.1190(2) -0.1325(2)
C11 C 0.8253(6) 0.0873(2) -0.2185(2)
C12 C 1.0634(7) 0.0314(3) -0.2840(2)
C13 C 0.9646(8) -0.0001(3) -0.3686(2)
C14 C -0.1696(5) 0.4691(2) 0.2173(2)
C15 C -0.0770(5) 0.5263(2) 0.2904(2)
C16 C -0.3239(5) 0.5898(2) 0.3443(2)
C17 C -0.2372(6) 0.6441(2) 0.4195(2)
C18 C -0.4824(6) 0.7038(2) 0.4781(2)
C19 C -0.3895(8) 0.7563(3) 0.5526(2)
H1 H 0.351(5) 0.159(2) 0.179(2)
H2 H -0.025(5) 0.260(2) 0.255(2)
H3 H 0.120(4) 0.605(2) 0.077(1)
H4 H 0.796(5) 0.139(2) 0.068(2)
H5 H 0.963(6) 0.243(2) -0.004(2)
H6 H 0.509(5) 0.132(2) -0.045(2)
H7 H 0.611(5) 0.247(2) -0.111(2)
H8 H 0.999(6) 0.055(2) -0.088(2)
H9 H 1.085(6) 0.167(2) -0.163(2)
H10 H 0.662(5) 0.037(2) -0.191(2)
H11 H 0.758(5) 0.152(2) -0.258(2)
H12 H 1.124(5) -0.034(2) -0.240(2)
H13 H 1.224(6) 0.076(2) -0.312(2)
H14 H 0.816(7) -0.060(3) -0.347(3)
H15 H 0.877(7) 0.062(3) -0.411(3)
H16 H 1.121(7) -0.035(3) -0.412(2)
H17 H -0.323(5) 0.423(2) 0.255(2)
H18 H -0.245(5) 0.526(2) 0.165(2)
H19 H 0.007(5) 0.467(2) 0.346(2)
H20 H 0.071(6) 0.576(2) 0.254(2)
H21 H -0.483(6) 0.540(2) 0.382(2)
H22 H -0.402(5) 0.644(2) 0.294(2)
H23 H -0.156(5) 0.586(2) 0.469(2)
H24 H -0.092(6) 0.695(2) 0.387(2)
H25 H -0.634(5) 0.652(2) 0.512(2)
H26 H -0.574(6) 0.758(2) 0.432(2)
H27 H -0.309(7) 0.701(3) 0.604(3)
H28 H -0.244(7) 0.814(3) 0.514(2)
H29 H -0.570(8) 0.792(3) 0.590(3)
C1A C 0.4592(5) 0.7248(2) -0.0729(2)
C2A C 0.6615(6) 0.7664(2) -0.1529(2)
C3A C 0.8918(6) 0.7033(2) -0.1988(2)
C4A C 0.9231(5) 0.5964(2) -0.1658(2)
C5A C 0.7106(5) 0.5470(2) -0.0822(2)
C6A C 0.4800(4) 0.6120(2) -0.0360(2)
C7A C 0.7234(5) 0.4376(2) -0.0446(2)
C8A C 0.2319(6) 0.7957(2) -0.0214(2)
C9A C 0.3188(6) 0.8216(2) 0.0700(2)
C10A C 0.0793(6) 0.8810(2) 0.1325(2)
C11A C 0.1747(6) 0.9127(2) 0.2185(2)
C12A C -0.0634(7) 0.9686(3) 0.2840(2)
C13A C 0.0354(8) 1.0001(3) 0.3686(2)
C14A C 1.1696(5) 0.5309(2) -0.2173(2)
C15A C 1.0770(5) 0.4737(2) -0.2904(2)
C16A C 1.3239(5) 0.4102(2) -0.3443(2)
C17A C 1.2372(6) 0.3559(2) -0.4195(2)
C18A C 1.4824(6) 0.2962(2) -0.4781(2)
C19A C 1.3895(8) 0.2437(3) -0.5526(2)
H1A H 0.649(5) 0.841(2) -0.179(2)
H2A H 1.025(5) 0.740(2) -0.255(2)
H3A H 0.880(4) 0.395(2) -0.077(1)
H4A H 0.204(5) 0.861(2) -0.068(2)
H5A H 0.037(6) 0.757(2) 0.004(2)
H6A H 0.491(5) 0.868(2) 0.045(2)
H7A H 0.389(5) 0.753(2) 0.111(2)
H8A H 0.001(6) 0.945(2) 0.088(2)
H9A H -0.085(6) 0.833(2) 0.163(2)
H10A H 0.338(5) 0.963(2) 0.191(2)
H11A H 0.242(5) 0.848(2) 0.258(2)
H12A H -0.124(5) 1.034(2) 0.240(2)
H13A H -0.224(6) 0.924(2) 0.312(2)
H14A H 0.184(7) 1.060(3) 0.347(3)
H15A H 0.123(7) 0.938(3) 0.411(3)
H16A H -0.121(7) 1.035(3) 0.412(2)
H17A H 1.323(5) 0.577(2) -0.255(2)
H18A H 1.245(5) 0.474(2) -0.165(2)
H19A H 0.993(5) 0.533(2) -0.346(2)
H20A H 0.929(6) 0.424(2) -0.254(2)
H21A H 1.483(6) 0.460(2) -0.382(2)
H22A H 1.402(5) 0.356(2) -0.294(2)
H23A H 1.156(5) 0.414(2) -0.469(2)
H24A H 1.092(6) 0.305(2) -0.387(2)
H25A H 1.634(5) 0.348(2) -0.512(2)
H26A H 1.574(6) 0.242(2) -0.432(2)
H27A H 1.309(7) 0.299(3) -0.604(3)
H28A H 1.244(7) 0.186(3) -0.514(2)
H29A H 1.570(8) 0.208(3) -0.590(3)
loop_
_geom_bond_atom_site_label_1
_geom_bond_atom_site_label_2
_geom_bond_distance
_geom_bond_site_symmetry_1
_geom_bond_site_symmetry_2
C1 C2 1.361 1_555 1_555
C2 C3 1.416 1_555 1_555
C3 C4 1.361 1_555 1_555
C4 C5 1.448 1_555 1_555
C5 C6 1.433 1_555 1_555
C6 C1 1.437 1_555 1_555
C7 C5 1.397 1_555 1_555
C8 C1 1.503 1_555 1_555
C9 C8 1.541 1_555 1_555
C10 C9 1.523 1_555 1_555
C11 C10 1.522 1_555 1_555
C12 C11 1.518 1_555 1_555
C13 C12 1.511 1_555 1_555
C14 C4 1.514 1_555 1_555
C15 C14 1.534 1_555 1_555
C16 C15 1.515 1_555 1_555
C17 C16 1.523 1_555 1_555
C18 C17 1.514 1_555 1_555
C19 C18 1.514 1_555 1_555
H1 C2 0.955 1_555 1_555
H2 C3 0.965 1_555 1_555
H3 C7 0.968 1_555 1_555
H4 C8 0.974 1_555 1_555
H5 C8 1.044 1_555 1_555
H6 C9 1.008 1_555 1_555
H7 C9 1.023 1_555 1_555
H8 C10 1.023 1_555 1_555
H9 C10 1.000 1_555 1_555
H10 C11 1.009 1_555 1_555
H11 C11 0.973 1_555 1_555
H12 C12 0.999 1_555 1_555
H13 C12 0.956 1_555 1_555
H14 C13 1.041 1_555 1_555
H15 C13 1.012 1_555 1_555
H16 C13 0.988 1_555 1_555
H17 C14 0.969 1_555 1_555
H18 C14 1.029 1_555 1_555
H19 C15 1.094 1_555 1_555
H20 C15 0.974 1_555 1_555
H21 C16 1.015 1_555 1_555
H22 C16 0.998 1_555 1_555
H23 C17 1.025 1_555 1_555
H24 C17 0.964 1_555 1_555
H25 C18 0.995 1_555 1_555
H26 C18 0.992 1_555 1_555
H27 C19 1.021 1_555 1_555
H28 C19 1.040 1_555 1_555
H29 C19 1.023 1_555 1_555
C1A C2A 1.361 1_555 1_555
C2A C3A 1.416 1_555 1_555
C3A C4A 1.361 1_555 1_555
C4A C5A 1.448 1_555 1_555
C5A C6A 1.433 1_555 1_555
C6A C7 1.401 1_555 1_555
C7A C6 1.401 1_555 1_555
C8A C1A 1.503 1_555 1_555
C9A C8A 1.541 1_555 1_555
C10A C9A 1.523 1_555 1_555
C11A C10A 1.522 1_555 1_555
C12A C11A 1.518 1_555 1_555
C13A C12A 1.511 1_555 1_555
C14A C4A 1.514 1_555 1_555
C15A C14A 1.534 1_555 1_555
C16A C15A 1.515 1_555 1_555
C17A C16A 1.523 1_555 1_555
C18A C17A 1.514 1_555 1_555
C19A C18A 1.514 1_555 1_555
H1A C2A 0.955 1_555 1_555
H2A C3A 0.965 1_555 1_555
H3A C7A 0.968 1_555 1_555
H4A C8A 0.974 1_555 1_555
H5A C8A 1.044 1_555 1_555
H6A C9A 1.008 1_555 1_555
H7A C9A 1.023 1_555 1_555
H8A C10A 1.023 1_555 1_555
H9A C10A 1.000 1_555 1_555
H10A C11A 1.009 1_555 1_555
H11A C11A 0.973 1_555 1_555
H12A C12A 0.999 1_555 1_555
H13A C12A 0.956 1_555 1_555
H14A C13A 1.041 1_555 1_555
H15A C13A 1.012 1_555 1_555
H16A C13A 0.988 1_555 1_555
H17A C14A 0.969 1_555 1_555
H18A C14A 1.029 1_555 1_555
H19A C15A 1.094 1_555 1_555
H20A C15A 0.974 1_555 1_555
H21A C16A 1.015 1_555 1_555
H22A C16A 0.998 1_555 1_555
H23A C17A 1.025 1_555 1_555
H24A C17A 0.964 1_555 1_555
H25A C18A 0.995 1_555 1_555
H26A C18A 0.992 1_555 1_555
H27A C19A 1.021 1_555 1_555
H28A C19A 1.040 1_555 1_555
H29A C19A 1.023 1_555 1_555
C1A C6A 1.437 1_555 1_555
C5A C7A 1.397 1_555 1_555
#END
