
#######################################################################
#
#                 Cambridge Crystallographic Data Centre
#                                CCDC
#
#######################################################################
#
# If this CIF has been generated from an entry in the Cambridge
# Structural Database, then it will include bibliographic, chemical,
# crystal, experimental, refinement or atomic coordinate data resulting
# from the CCDC's data processing and validation procedures.
#
#######################################################################

data_CSD_CIF_XITPAS
_audit_creation_date 2008-06-10
_audit_creation_method CSD-ConQuest-V1
_database_code_CSD XITPAS
_database_code_depnum_ccdc_archive 'CCDC 296865'
_chemical_formula_sum 'C22 H26'
_chemical_formula_moiety
;
C22 H26
;
_journal_coden_Cambridge 1489
_journal_volume 474
_journal_year 2007
_journal_page_first 119
_journal_name_full 'Mol.Cryst.Liq.Cryst. '
loop_
_publ_author_name
"C.Kitamura"
"Y.Abe"
"N.Kawatsuki"
"A.Yoneda"
"K.Asada"
"T.Kobayashi"
"H.Naito"
_chemical_name_systematic
;
1,4,5,8-Tetraethylanthracene
;
_chemical_melting_point 393.15
_cell_volume    828.214
_exptl_crystal_colour 'yellow'
_exptl_crystal_density_diffrn 1.165
_exptl_special_details
;
Melting point range 393.15-394.15K
fluorescent

;
_exptl_crystal_description 'Platelet'
_exptl_crystal_preparation 'n-hexane'
_diffrn_ambient_temperature 223.2
#These two values have been output from a single CSD field.
_refine_ls_R_factor_gt 0.0518
_refine_ls_wR_factor_gt 0.0518
_symmetry_cell_setting monoclinic
_symmetry_space_group_name_H-M 'P 21/n'
_symmetry_Int_Tables_number 14
loop_
_symmetry_equiv_pos_site_id
_symmetry_equiv_pos_as_xyz
1 x,y,z
2 1/2-x,1/2+y,1/2-z
3 -x,-y,-z
4 -1/2+x,-1/2-y,-1/2+z
_cell_length_a 10.208(1)
_cell_length_b 5.1793(5)
_cell_length_c 15.681(2)
_cell_angle_alpha 90
_cell_angle_beta 92.587(7)
_cell_angle_gamma 90
_cell_formula_units_Z 2
loop_
_atom_type_symbol
_atom_type_radius_bond
C 0.68
H 0.23
loop_
_atom_site_label
_atom_site_type_symbol
_atom_site_fract_x
_atom_site_fract_y
_atom_site_fract_z
C1 C 0.30340(9) 0.3554(2) 0.05167(6)
C2 C 0.18378(10) 0.3478(2) 0.00945(7)
C3 C 0.15559(9) 0.1736(2) -0.05896(7)
C4 C 0.24625(9) 0.0040(2) -0.08711(6)
C5 C 0.37476(9) 0.0020(2) -0.04364(6)
C6 C 0.40259(9) 0.1770(2) 0.02558(6)
C7 C 0.47261(9) -0.1691(2) -0.06693(6)
C8 C 0.33505(9) 0.5398(2) 0.12433(6)
C9 C 0.2249(1) 0.7200(2) 0.14827(7)
C10 C 0.2174(1) -0.1790(2) -0.16058(7)
C11 C 0.0785(1) -0.1673(3) -0.19989(9)
H1 H 0.115(1) 0.465(3) 0.0269(9)
H2 H 0.069(2) 0.180(3) -0.0852(10)
H3 H 0.453(1) -0.287(2) -0.1125(8)
H4 H 0.413(1) 0.652(2) 0.1088(8)
H5 H 0.366(1) 0.436(3) 0.1767(8)
H6 H 0.259(1) 0.837(3) 0.194(1)
H7 H 0.151(1) 0.628(3) 0.1693(8)
H8 H 0.196(1) 0.828(3) 0.1014(10)
H9 H 0.283(1) -0.140(2) -0.2066(8)
H10 H 0.237(1) -0.365(3) -0.1406(8)
H11 H 0.055(2) 0.018(4) -0.224(1)
H12 H 0.014(2) -0.214(3) -0.161(1)
H13 H 0.071(2) -0.296(3) -0.247(1)
C1B C 0.69660(9) -0.3554(2) -0.05167(6)
C2B C 0.81622(10) -0.3478(2) -0.00945(7)
C3B C 0.84441(9) -0.1736(2) 0.05896(7)
C4B C 0.75375(9) -0.0040(2) 0.08711(6)
C5B C 0.62524(9) -0.0020(2) 0.04364(6)
C6B C 0.59741(9) -0.1770(2) -0.02558(6)
C7B C 0.52739(9) 0.1691(2) 0.06693(6)
C8B C 0.66495(9) -0.5398(2) -0.12433(6)
C9B C 0.7751(1) -0.7200(2) -0.14827(7)
C10B C 0.7826(1) 0.1790(2) 0.16058(7)
C11B C 0.9215(1) 0.1673(3) 0.19989(9)
H1B H 0.885(1) -0.465(3) -0.0269(9)
H2B H 0.931(2) -0.180(3) 0.0852(10)
H3B H 0.547(1) 0.287(2) 0.1125(8)
H4B H 0.587(1) -0.652(2) -0.1088(8)
H5B H 0.634(1) -0.436(3) -0.1767(8)
H6B H 0.741(1) -0.837(3) -0.194(1)
H7B H 0.849(1) -0.628(3) -0.1693(8)
H8B H 0.804(1) -0.828(3) -0.1014(10)
H9B H 0.717(1) 0.140(2) 0.2066(8)
H10B H 0.763(1) 0.365(3) 0.1406(8)
H11B H 0.945(2) -0.018(4) 0.224(1)
H12B H 0.986(2) 0.214(3) 0.161(1)
H13B H 0.929(2) 0.296(3) 0.247(1)
loop_
_geom_bond_atom_site_label_1
_geom_bond_atom_site_label_2
_geom_bond_distance
_geom_bond_site_symmetry_1
_geom_bond_site_symmetry_2
C1 C2 1.363 1_555 1_555
C2 C3 1.421 1_555 1_555
C3 C4 1.364 1_555 1_555
C4 C5 1.451 1_555 1_555
C5 C6 1.433 1_555 1_555
C6 C1 1.444 1_555 1_555
C7 C5 1.396 1_555 1_555
C8 C1 1.510 1_555 1_555
C9 C8 1.521 1_555 1_555
C10 C4 1.511 1_555 1_555
C11 C10 1.522 1_555 1_555
H1 C2 0.977 1_555 1_555
H2 C3 0.959 1_555 1_555
H3 C7 0.954 1_555 1_555
H4 C8 1.024 1_555 1_555
H5 C8 1.020 1_555 1_555
H6 C9 0.990 1_555 1_555
H7 C9 0.963 1_555 1_555
H8 C9 0.959 1_555 1_555
H9 C10 1.026 1_555 1_555
H10 C10 1.030 1_555 1_555
H11 C11 1.055 1_555 1_555
H12 C11 0.949 1_555 1_555
H13 C11 0.995 1_555 1_555
C1B C2B 1.363 1_555 1_555
C2B C3B 1.421 1_555 1_555
C3B C4B 1.364 1_555 1_555
C4B C5B 1.451 1_555 1_555
C5B C6B 1.433 1_555 1_555
C6B C7 1.404 1_555 1_555
C7B C6 1.404 1_555 1_555
C8B C1B 1.510 1_555 1_555
C9B C8B 1.521 1_555 1_555
C10B C4B 1.511 1_555 1_555
C11B C10B 1.522 1_555 1_555
H1B C2B 0.977 1_555 1_555
H2B C3B 0.959 1_555 1_555
H3B C7B 0.954 1_555 1_555
H4B C8B 1.024 1_555 1_555
H5B C8B 1.020 1_555 1_555
H6B C9B 0.990 1_555 1_555
H7B C9B 0.963 1_555 1_555
H8B C9B 0.959 1_555 1_555
H9B C10B 1.026 1_555 1_555
H10B C10B 1.030 1_555 1_555
H11B C11B 1.055 1_555 1_555
H12B C11B 0.949 1_555 1_555
H13B C11B 0.995 1_555 1_555
C1B C6B 1.444 1_555 1_555
C5B C7B 1.396 1_555 1_555
#END
