
#######################################################################
#
#                 Cambridge Crystallographic Data Centre
#                                CCDC
#
#######################################################################
#
# If this CIF has been generated from an entry in the Cambridge
# Structural Database, then it will include bibliographic, chemical,
# crystal, experimental, refinement or atomic coordinate data resulting
# from the CCDC's data processing and validation procedures.
#
#######################################################################

data_CSD_CIF_XITPEW
_audit_creation_date 2008-06-10
_audit_creation_method CSD-ConQuest-V1
_database_code_CSD XITPEW
_database_code_depnum_ccdc_archive 'CCDC 296866'
_chemical_formula_sum 'C26 H34'
_chemical_formula_moiety
;
C26 H34
;
_journal_coden_Cambridge 1489
_journal_volume 474
_journal_year 2007
_journal_page_first 119
_journal_name_full 'Mol.Cryst.Liq.Cryst. '
loop_
_publ_author_name
"C.Kitamura"
"Y.Abe"
"N.Kawatsuki"
"A.Yoneda"
"K.Asada"
"T.Kobayashi"
"H.Naito"
_chemical_name_systematic
;
1,4,5,8-Tetrapropylanthracene
;
_chemical_melting_point 379.15
_cell_volume    511.791
_exptl_crystal_colour 'colorless'
_exptl_crystal_density_diffrn 1.124
_exptl_special_details
;
Melting point range 379.15-381.15K
fluorescent
There are a number of bond length discrepancies
;
_exptl_crystal_description 'Prism'
_exptl_crystal_preparation 'n-hexane'
_diffrn_ambient_temperature 223.2
#These two values have been output from a single CSD field.
_refine_ls_R_factor_gt 0.0642
_refine_ls_wR_factor_gt 0.0642
_symmetry_cell_setting triclinic
_symmetry_space_group_name_H-M 'P -1'
_symmetry_Int_Tables_number 2
loop_
_symmetry_equiv_pos_site_id
_symmetry_equiv_pos_as_xyz
1 x,y,z
2 -x,-y,-z
_cell_length_a 6.5551(1)
_cell_length_b 7.9150(2)
_cell_length_c 10.9768(1)
_cell_angle_alpha 108.01(1)
_cell_angle_beta 72.29(1)
_cell_angle_gamma 102.05(2)
_cell_formula_units_Z 1
loop_
_atom_type_symbol
_atom_type_radius_bond
C 0.68
H 0.23
loop_
_atom_site_label
_atom_site_type_symbol
_atom_site_fract_x
_atom_site_fract_y
_atom_site_fract_z
C1 C 0.5932(2) 0.2910(1) 0.9744(1)
C2 C 0.5659(2) 0.2156(2) 0.8499(1)
C3 C 0.7321(2) 0.2364(2) 0.7351(1)
C4 C 0.9293(2) 0.3310(2) 0.7423(1)
C5 C 0.9669(2) 0.4149(1) 0.8714(1)
C6 C 0.7981(2) 0.3964(1) 0.9878(1)
C7 C 1.1628(2) 0.5176(1) 0.8881(1)
C8 C 0.4189(2) 0.2690(2) 1.0974(1)
C9 C 0.2081(2) 0.1559(2) 1.0759(1)
C10 C 0.0458(2) 0.1456(2) 1.2072(1)
C11 C 1.1042(2) 0.3401(2) 0.6170(1)
C12 C 1.2611(2) 0.2031(2) 0.5786(1)
C13 C 1.4512(2) 0.2243(2) 0.4628(1)
H1 H 0.43150 0.14730 0.83870
H2 H 0.70310 0.18030 0.65050
H3 H 1.27260 0.52910 0.81270
H4 H 0.47700 0.21510 1.14390
H5 H 0.38700 0.38480 1.15000
H6 H 0.23610 0.03680 1.02560
H7 H 0.14830 0.20580 1.02840
H8 H -0.08540 0.07590 1.19050
H9 H 0.01620 0.26370 1.25800
H10 H 0.10180 0.09310 1.25420
H11 H 1.03920 0.31990 0.54670
H12 H 1.18380 0.45710 0.63050
H13 H 1.18470 0.08600 0.55650
H14 H 1.31490 0.21510 0.65280
H15 H 1.39950 0.21020 0.38650
H16 H 1.52900 0.34060 0.48270
H17 H 1.54350 0.13660 0.44230
C1A C 1.4068(2) 0.7090(1) 1.0256(1)
C2A C 1.4341(2) 0.7844(2) 1.1501(1)
C3A C 1.2679(2) 0.7636(2) 1.2649(1)
C4A C 1.0707(2) 0.6690(2) 1.2577(1)
C5A C 1.0331(2) 0.5851(1) 1.1286(1)
C6A C 1.2019(2) 0.6036(1) 1.0122(1)
C7A C 0.8372(2) 0.4824(1) 1.1119(1)
C8A C 1.5811(2) 0.7310(2) 0.9026(1)
C9A C 1.7919(2) 0.8441(2) 0.9241(1)
C10A C 1.9542(2) 0.8544(2) 0.7928(1)
C11A C 0.8958(2) 0.6599(2) 1.3830(1)
C12A C 0.7389(2) 0.7969(2) 1.4214(1)
C13A C 0.5488(2) 0.7757(2) 1.5372(1)
H1A H 1.56850 0.85270 1.16130
H2A H 1.29690 0.81970 1.34950
H3A H 0.72740 0.47090 1.18730
H4A H 1.52300 0.78490 0.85610
H5A H 1.61300 0.61520 0.85000
H6A H 1.76390 0.96320 0.97440
H7A H 1.85170 0.79420 0.97160
H8A H 2.08540 0.92410 0.80950
H9A H 1.98380 0.73630 0.74200
H10A H 1.89820 0.90690 0.74580
H11A H 0.96080 0.68010 1.45330
H12A H 0.81620 0.54290 1.36950
H13A H 0.81530 0.91400 1.44350
H14A H 0.68510 0.78490 1.34720
H15A H 0.60050 0.78980 1.61350
H16A H 0.47100 0.65940 1.51730
H17A H 0.45650 0.86340 1.55770
loop_
_geom_bond_atom_site_label_1
_geom_bond_atom_site_label_2
_geom_bond_distance
_geom_bond_site_symmetry_1
_geom_bond_site_symmetry_2
C1 C2 1.362 1_555 1_555
C2 C3 1.421 1_555 1_555
C3 C4 1.364 1_555 1_555
C4 C5 1.440 1_555 1_555
C5 C6 1.437 1_555 1_555
C6 C1 1.448 1_555 1_555
C7 C5 1.400 1_555 1_555
C8 C1 1.511 1_555 1_555
C9 C8 1.522 1_555 1_555
C10 C9 1.523 1_555 1_555
C11 C4 1.510 1_555 1_555
C12 C11 1.527 1_555 1_555
C13 C12 1.509 1_555 1_555
H1 C2 0.954 1_555 1_555
H2 C3 0.955 1_555 1_555
H3 C7 0.932 1_555 1_555
H4 C8 0.953 1_555 1_555
H5 C8 0.947 1_555 1_555
H6 C9 0.957 1_555 1_555
H7 C9 0.948 1_555 1_555
H8 C10 0.955 1_555 1_555
H9 C10 0.954 1_555 1_555
H10 C10 0.941 1_555 1_555
H11 C11 0.948 1_555 1_555
H12 C11 0.955 1_555 1_555
H13 C12 0.954 1_555 1_555
H14 C12 0.954 1_555 1_555
H15 C13 0.963 1_555 1_555
H16 C13 0.950 1_555 1_555
H17 C13 0.946 1_555 1_555
C1A C2A 1.362 1_555 1_555
C2A C3A 1.421 1_555 1_555
C3A C4A 1.364 1_555 1_555
C4A C5A 1.440 1_555 1_555
C5A C6A 1.437 1_555 1_555
C6A C7 1.397 1_555 1_555
C7A C6 1.397 1_555 1_555
C8A C1A 1.511 1_555 1_555
C9A C8A 1.522 1_555 1_555
C10A C9A 1.523 1_555 1_555
C11A C4A 1.510 1_555 1_555
C12A C11A 1.527 1_555 1_555
C13A C12A 1.509 1_555 1_555
H1A C2A 0.954 1_555 1_555
H2A C3A 0.955 1_555 1_555
H3A C7A 0.932 1_555 1_555
H4A C8A 0.953 1_555 1_555
H5A C8A 0.947 1_555 1_555
H6A C9A 0.957 1_555 1_555
H7A C9A 0.948 1_555 1_555
H8A C10A 0.955 1_555 1_555
H9A C10A 0.954 1_555 1_555
H10A C10A 0.941 1_555 1_555
H11A C11A 0.948 1_555 1_555
H12A C11A 0.955 1_555 1_555
H13A C12A 0.954 1_555 1_555
H14A C12A 0.954 1_555 1_555
H15A C13A 0.963 1_555 1_555
H16A C13A 0.950 1_555 1_555
H17A C13A 0.946 1_555 1_555
C1A C6A 1.448 1_555 1_555
C5A C7A 1.400 1_555 1_555
#END
