
#######################################################################
#
#                 Cambridge Crystallographic Data Centre
#                                CCDC
#
#######################################################################
#
# If this CIF has been generated from an entry in the Cambridge
# Structural Database, then it will include bibliographic, chemical,
# crystal, experimental, refinement or atomic coordinate data resulting
# from the CCDC's data processing and validation procedures.
#
#######################################################################

data_CSD_CIF_XOCMAE
_audit_creation_date 2008-10-31
_audit_creation_method CSD-ConQuest-V1
_database_code_CSD XOCMAE
_database_code_depnum_ccdc_archive 'CCDC 662236'
_chemical_formula_sum 'C22 H22'
_chemical_formula_moiety
;
C22 H22
;
_journal_coden_Cambridge 7
_journal_volume 81
_journal_year 2008
_journal_page_first 754
_journal_name_full 'Bull.Chem.Soc.Jpn. '
loop_
_publ_author_name
"C.Kitamura"
"C.Matsumoto"
"N.Kawatsuki"
"A.Yoneda"
"K.Asada"
"T.Kobayashi"
"H.Naito"
_chemical_name_systematic
;
1,2,3,4,5,6,7,8-Octahydrodibenz(a,c)anthracene
;
_chemical_melting_point 404.15
_cell_volume   1521.979
_exptl_crystal_colour 'yellow'
_exptl_crystal_density_diffrn 1.25
_exptl_special_details
;
Melting point range 404.15-405.15K
fluorescent

;
_exptl_crystal_description 'Prism'
_diffrn_ambient_temperature 223.2
#These two values have been output from a single CSD field.
_refine_ls_R_factor_gt 0.0559
_refine_ls_wR_factor_gt 0.0559
_symmetry_cell_setting monoclinic
_symmetry_space_group_name_H-M 'C 2/c'
_symmetry_Int_Tables_number 15
loop_
_symmetry_equiv_pos_site_id
_symmetry_equiv_pos_as_xyz
1 x,y,z
2 1/2+x,1/2+y,z
3 -x,y,1/2-z
4 1/2-x,1/2+y,1/2-z
5 -x,-y,-z
6 -1/2-x,-1/2-y,-z
7 x,-y,-1/2+z
8 -1/2+x,-1/2-y,-1/2+z
_cell_length_a 10.729(3)
_cell_length_b 22.358(3)
_cell_length_c 7.616(2)
_cell_angle_alpha 90
_cell_angle_beta 123.583(8)
_cell_angle_gamma 90
_cell_formula_units_Z 4
loop_
_atom_type_symbol
_atom_type_radius_bond
C 0.68
H 0.23
loop_
_atom_site_label
_atom_site_type_symbol
_atom_site_fract_x
_atom_site_fract_y
_atom_site_fract_z
C1 C 0.9215(1) -0.10097(6) 0.7127(2)
C2 C 0.8476(1) -0.04848(6) 0.6864(2)
C3 C 0.9239(1) 0.00773(6) 0.7207(2)
C4 C 0.8537(1) 0.06246(6) 0.6959(2)
C5 C 0.9246(1) 0.11719(6) 0.7226(2)
C6 C 0.8529(2) 0.17307(7) 0.6959(2)
C7 C 0.9249(2) 0.22547(7) 0.7219(2)
C8 C 0.8419(1) -0.16059(6) 0.6625(2)
C9 C 0.6730(2) -0.15408(7) 0.5190(2)
C10 C 0.6208(2) -0.10835(7) 0.6110(2)
C11 C 0.6852(1) -0.04710(7) 0.6179(2)
H1 H 0.748(2) 0.0640(6) 0.657(2)
H2 H 0.748(2) 0.1742(7) 0.657(2)
H3 H 0.873(2) 0.2634(8) 0.701(2)
H4 H 0.879(1) -0.1876(7) 0.591(2)
H5 H 0.868(1) -0.1809(6) 0.802(2)
H6 H 0.625(2) -0.1936(7) 0.497(2)
H7 H 0.642(2) -0.1398(6) 0.373(2)
H8 H 0.658(2) -0.1217(7) 0.760(2)
H9 H 0.509(2) -0.1060(7) 0.527(2)
H10 H 0.677(1) -0.0194(7) 0.721(2)
H11 H 0.624(1) -0.0287(7) 0.476(2)
C1B C 1.0785(1) -0.10097(6) 0.7873(2)
C2B C 1.1524(1) -0.04848(6) 0.8136(2)
C3B C 1.0761(1) 0.00773(6) 0.7793(2)
C4B C 1.1463(1) 0.06246(6) 0.8041(2)
C5B C 1.0754(1) 0.11719(6) 0.7774(2)
C6B C 1.1471(2) 0.17307(7) 0.8041(2)
C7B C 1.0751(2) 0.22547(7) 0.7781(2)
C8B C 1.1581(1) -0.16059(6) 0.8375(2)
C9B C 1.3270(2) -0.15408(7) 0.9810(2)
C10B C 1.3792(2) -0.10835(7) 0.8890(2)
C11B C 1.3148(1) -0.04710(7) 0.8821(2)
H1B H 1.252(2) 0.0640(6) 0.843(2)
H2B H 1.252(2) 0.1742(7) 0.843(2)
H3B H 1.127(2) 0.2634(8) 0.799(2)
H4B H 1.121(1) -0.1876(7) 0.909(2)
H5B H 1.132(1) -0.1809(6) 0.698(2)
H6B H 1.375(2) -0.1936(7) 1.003(2)
H7B H 1.358(2) -0.1398(6) 1.127(2)
H8B H 1.342(2) -0.1217(7) 0.740(2)
H9B H 1.491(2) -0.1060(7) 0.973(2)
H10B H 1.323(1) -0.0194(7) 0.779(2)
H11B H 1.376(1) -0.0287(7) 1.024(2)
loop_
_geom_bond_atom_site_label_1
_geom_bond_atom_site_label_2
_geom_bond_distance
_geom_bond_site_symmetry_1
_geom_bond_site_symmetry_2
C1 C2 1.368 1_555 1_555
C2 C3 1.443 1_555 1_555
C3 C4 1.394 1_555 1_555
C4 C5 1.395 1_555 1_555
C5 C6 1.422 1_555 1_555
C6 C7 1.356 1_555 1_555
C7 H3 0.978 1_555 1_555
C8 C1 1.514 1_555 1_555
C9 C8 1.519 1_555 1_555
C10 C9 1.511 1_555 1_555
C11 C2 1.518 1_555 1_555
H1 C4 1.002 1_555 1_555
H2 C6 0.993 1_555 1_555
H4 C8 1.029 1_555 1_555
H5 C8 1.041 1_555 1_555
H6 C9 0.989 1_555 1_555
H7 C9 1.020 1_555 1_555
H8 C10 1.017 1_555 1_555
H9 C10 1.001 1_555 1_555
H10 C11 1.041 1_555 1_555
H11 C11 0.992 1_555 1_555
C1B C1 1.450 1_555 1_555
C2B C1B 1.368 1_555 1_555
C3B C3 1.435 1_555 1_555
C4B C3B 1.394 1_555 1_555
C5B C5 1.430 1_555 1_555
C6B C5B 1.422 1_555 1_555
C7B C7 1.420 1_555 1_555
C8B C1B 1.514 1_555 1_555
C9B C8B 1.519 1_555 1_555
C10B C9B 1.511 1_555 1_555
C11B C2B 1.518 1_555 1_555
H1B C4B 1.002 1_555 1_555
H2B C6B 0.993 1_555 1_555
H3B C7B 0.978 1_555 1_555
H4B C8B 1.029 1_555 1_555
H5B C8B 1.041 1_555 1_555
H6B C9B 0.989 1_555 1_555
H7B C9B 1.020 1_555 1_555
H8B C10B 1.017 1_555 1_555
H9B C10B 1.001 1_555 1_555
H10B C11B 1.041 1_555 1_555
H11B C11B 0.992 1_555 1_555
C10 C11 1.522 1_555 1_555
C2B C3B 1.443 1_555 1_555
C4B C5B 1.395 1_555 1_555
C6B C7B 1.356 1_555 1_555
C10B C11B 1.522 1_555 1_555
#END
