
#######################################################################
#
#                 Cambridge Crystallographic Data Centre
#                                CCDC
#
#######################################################################
#
# If this CIF has been generated from an entry in the Cambridge
# Structural Database, then it will include bibliographic, chemical,
# crystal, experimental, refinement or atomic coordinate data resulting
# from the CCDC's data processing and validation procedures.
#
#######################################################################

data_CSD_CIF_XOKDOQ
_audit_creation_date 2002-10-15
_audit_creation_method CSD-ConQuest-V1
_database_code_CSD XOKDOQ
_chemical_formula_sum 'C48 H42'
_chemical_formula_moiety
;
C48 H42
;
_journal_coden_Cambridge 35
_journal_volume 66
_journal_year 2001
_journal_page_first 7804
_journal_name_full 'J.Org.Chem. '
loop_
_publ_author_name
"Hongbin Li"
"J.L.Petersen"
"Kung K.Wang"
_chemical_name_systematic
;
6,9-Di-t-butyl-15,16-diphenyl-5,10-dihydrodiindeno(1,2-h:2',1'-b)phenanthrene
;
_chemical_melting_point 613.15
_cell_volume   3396.527
_exptl_crystal_density_diffrn 1.21
_exptl_special_details
;
Melts above 613.15K

;
_exptl_crystal_preparation 'dichloromethane/hexanes'
_diffrn_ambient_temperature 295
#These two values have been output from a single CSD field.
_refine_ls_R_factor_gt 0.0669
_refine_ls_wR_factor_gt 0.0669
_symmetry_cell_setting monoclinic
_symmetry_space_group_name_H-M 'C 2/c'
_symmetry_Int_Tables_number 15
loop_
_symmetry_equiv_pos_site_id
_symmetry_equiv_pos_as_xyz
1 x,y,z
2 -x,y,1/2-z
3 1/2+x,1/2+y,z
4 1/2-x,1/2+y,1/2-z
5 -x,-y,-z
6 x,-y,-1/2+z
7 -1/2-x,-1/2-y,-z
8 -1/2+x,-1/2-y,-1/2+z
_cell_length_a 18.076(3)
_cell_length_b 10.382(3)
_cell_length_c 20.130(4)
_cell_angle_alpha 90
_cell_angle_beta 115.96(2)
_cell_angle_gamma 90
_cell_formula_units_Z 4
loop_
_atom_type_symbol
_atom_type_radius_bond
C 0.68
H 0.23
loop_
_atom_site_label
_atom_site_type_symbol
_atom_site_fract_x
_atom_site_fract_y
_atom_site_fract_z
C1 C -0.0219(3) -0.0538(4) -0.2263(2)
C2 C -0.0703(3) 0.0514(4) -0.2229(2)
C3 C -0.1059(3) 0.0429(5) -0.1744(2)
C4 C -0.1678(3) 0.1273(5) -0.1662(3)
C5 C -0.2144(3) 0.2327(5) -0.2056(3)
C6 C -0.2666(3) 0.2927(5) -0.1831(3)
C7 C -0.2759(3) 0.2507(5) -0.1225(3)
C8 C -0.2328(4) 0.1447(5) -0.0831(3)
C9 C -0.1798(3) 0.0829(5) -0.1063(3)
C10 C -0.1301(3) -0.0373(5) -0.0747(3)
C11 C -0.0867(3) -0.0625(5) -0.1235(2)
C12 C -0.0456(3) -0.1708(5) -0.1290(3)
C13 C -0.0219(3) -0.1697(4) -0.1888(3)
C14 C -0.0063(3) -0.2861(5) -0.2192(2)
C15 C -0.0948(3) 0.1549(5) -0.2803(3)
C16 C -0.1330(3) 0.1225(5) -0.3546(3)
C17 C -0.1609(3) 0.2164(6) -0.4079(3)
C18 C -0.1519(3) 0.3451(6) -0.3895(3)
C19 C -0.1156(4) 0.3786(5) -0.3172(3)
C20 C -0.0866(3) 0.2858(5) -0.2621(3)
C21 C -0.0295(4) -0.2923(5) -0.0793(3)
C22 C -0.0305(3) -0.2635(5) -0.0046(3)
C23 C -0.0973(4) -0.3938(5) -0.1184(3)
C24 C 0.0573(3) -0.3457(5) -0.0575(3)
H1 H -0.2098(3) 0.2620(5) -0.2473(3)
H2 H -0.2965(3) 0.3637(5) -0.2094(3)
H3 H -0.3115(3) 0.2939(5) -0.1080(3)
H4 H -0.2390(4) 0.1153(5) -0.0422(3)
H5 H -0.1656(3) -0.1089(5) -0.0768(3)
H6 H -0.0905(3) -0.0240(5) -0.0237(3)
H7 H -0.0048(3) -0.3640(5) -0.1958(2)
H8 H -0.1399(3) 0.0362(5) -0.3685(3)
H9 H -0.1864(3) 0.1927(6) -0.4574(3)
H10 H -0.1704(3) 0.4079(6) -0.4261(3)
H11 H -0.1101(4) 0.4653(5) -0.3043(3)
H12 H -0.0614(3) 0.3108(5) -0.2128(3)
H13 H -0.0857(4) -0.2449(29) -0.0124(3)
H14 H 0.0041(15) -0.1907(19) 0.0181(8)
H15 H -0.0103(18) -0.3372(12) 0.0272(7)
H16 H -0.0990(13) -0.4147(22) -0.1655(8)
H17 H -0.1496(4) -0.3596(12) -0.1255(15)
H18 H -0.0854(10) -0.4701(12) -0.0886(8)
H19 H 0.0615(6) -0.3755(25) -0.1008(3)
H20 H 0.0676(7) -0.4160(18) -0.0236(12)
H21 H 0.0971(3) -0.2789(8) -0.0343(14)
C1A C 0.0219(3) -0.0538(4) -0.2737(2)
C2A C 0.0703(3) 0.0514(4) -0.2771(2)
C3A C 0.1059(3) 0.0429(5) -0.3256(2)
C4A C 0.1678(3) 0.1273(5) -0.3338(3)
C5A C 0.2144(3) 0.2327(5) -0.2944(3)
C6A C 0.2666(3) 0.2927(5) -0.3169(3)
C7A C 0.2759(3) 0.2507(5) -0.3775(3)
C8A C 0.2328(4) 0.1447(5) -0.4169(3)
C9A C 0.1798(3) 0.0829(5) -0.3937(3)
C10A C 0.1301(3) -0.0373(5) -0.4253(3)
C11A C 0.0867(3) -0.0625(5) -0.3765(2)
C12A C 0.0456(3) -0.1708(5) -0.3710(3)
C13A C 0.0219(3) -0.1697(4) -0.3112(3)
C14A C 0.0063(3) -0.2861(5) -0.2808(2)
H7A H 0.0048(3) -0.3640(5) -0.3042(2)
C21A C 0.0295(4) -0.2923(5) -0.4207(3)
C22A C 0.0305(3) -0.2635(5) -0.4954(3)
H13A H 0.0857(4) -0.2449(29) -0.4876(3)
H14A H -0.0041(15) -0.1907(19) -0.5181(8)
H15A H 0.0103(18) -0.3372(12) -0.5272(7)
C23A C 0.0973(4) -0.3938(5) -0.3816(3)
H16A H 0.0990(13) -0.4147(22) -0.3345(8)
H17A H 0.1496(4) -0.3596(12) -0.3745(15)
H18A H 0.0854(10) -0.4701(12) -0.4114(8)
C24A C -0.0573(3) -0.3457(5) -0.4425(3)
H19A H -0.0615(6) -0.3755(25) -0.3992(3)
H20A H -0.0676(7) -0.4160(18) -0.4764(12)
H21A H -0.0971(3) -0.2789(8) -0.4657(14)
H5A H 0.1656(3) -0.1089(5) -0.4232(3)
H6A H 0.0905(3) -0.0240(5) -0.4763(3)
H4A H 0.2390(4) 0.1153(5) -0.4578(3)
H3A H 0.3115(3) 0.2939(5) -0.3920(3)
H2A H 0.2965(3) 0.3637(5) -0.2906(3)
H1A H 0.2098(3) 0.2620(5) -0.2527(3)
C15A C 0.0948(3) 0.1549(5) -0.2197(3)
C16A C 0.1330(3) 0.1225(5) -0.1454(3)
C17A C 0.1609(3) 0.2164(6) -0.0921(3)
C18A C 0.1519(3) 0.3451(6) -0.1105(3)
C19A C 0.1156(4) 0.3786(5) -0.1828(3)
C20A C 0.0866(3) 0.2858(5) -0.2379(3)
H12A H 0.0614(3) 0.3108(5) -0.2872(3)
H11A H 0.1101(4) 0.4653(5) -0.1957(3)
H10A H 0.1704(3) 0.4079(6) -0.0739(3)
H9A H 0.1864(3) 0.1927(6) -0.0426(3)
H8A H 0.1399(3) 0.0362(5) -0.1315(3)
loop_
_geom_bond_atom_site_label_1
_geom_bond_atom_site_label_2
_geom_bond_distance
_geom_bond_site_symmetry_1
_geom_bond_site_symmetry_2
C1 C2 1.420 1_555 1_555
C2 C3 1.387 1_555 1_555
C3 C4 1.486 1_555 1_555
C4 C5 1.397 1_555 1_555
C5 C6 1.363 1_555 1_555
C6 C7 1.373 1_555 1_555
C7 C8 1.381 1_555 1_555
C8 C9 1.393 1_555 1_555
C9 C4 1.394 1_555 1_555
C10 C9 1.506 1_555 1_555
C11 C3 1.434 1_555 1_555
C12 C11 1.379 1_555 1_555
C13 C1 1.420 1_555 1_555
C14 C13 1.437 1_555 1_555
C15 C2 1.496 1_555 1_555
C16 C15 1.387 1_555 1_555
C17 C16 1.372 1_555 1_555
C18 C17 1.377 1_555 1_555
C19 C18 1.354 1_555 1_555
C20 C15 1.398 1_555 1_555
C21 C12 1.556 1_555 1_555
C22 C21 1.541 1_555 1_555
C23 C21 1.545 1_555 1_555
C24 C21 1.536 1_555 1_555
H1 C5 0.930 1_555 1_555
H2 C6 0.930 1_555 1_555
H3 C7 0.930 1_555 1_555
H4 C8 0.930 1_555 1_555
H5 C10 0.971 1_555 1_555
H6 C10 0.971 1_555 1_555
H7 C14 0.930 1_555 1_555
H8 C16 0.931 1_555 1_555
H9 C17 0.929 1_555 1_555
H10 C18 0.930 1_555 1_555
H11 C19 0.930 1_555 1_555
H12 C20 0.929 1_555 1_555
H13 C22 0.959 1_555 1_555
H14 C22 0.960 1_555 1_555
H15 C22 0.961 1_555 1_555
H16 C23 0.960 1_555 1_555
H17 C23 0.960 1_555 1_555
H18 C23 0.960 1_555 1_555
H19 C24 0.959 1_555 1_555
H20 C24 0.960 1_555 1_555
H21 C24 0.960 1_555 1_555
C1A C1 1.483 1_555 1_555
C2A C1A 1.420 1_555 1_555
C3A C2A 1.387 1_555 1_555
C4A C3A 1.486 1_555 1_555
C5A C4A 1.397 1_555 1_555
C6A C5A 1.363 1_555 1_555
C7A C6A 1.373 1_555 1_555
C8A C7A 1.381 1_555 1_555
C9A C4A 1.394 1_555 1_555
C10A C9A 1.506 1_555 1_555
C11A C3A 1.434 1_555 1_555
C12A C11A 1.379 1_555 1_555
C13A C1A 1.420 1_555 1_555
C14A C14 1.355 1_555 1_555
H7A C14A 0.930 1_555 1_555
C21A C12A 1.556 1_555 1_555
C22A C21A 1.541 1_555 1_555
H13A C22A 0.959 1_555 1_555
H14A C22A 0.960 1_555 1_555
H15A C22A 0.961 1_555 1_555
C23A C21A 1.545 1_555 1_555
H16A C23A 0.960 1_555 1_555
H17A C23A 0.960 1_555 1_555
H18A C23A 0.960 1_555 1_555
C24A C21A 1.536 1_555 1_555
H19A C24A 0.959 1_555 1_555
H20A C24A 0.960 1_555 1_555
H21A C24A 0.960 1_555 1_555
H5A C10A 0.971 1_555 1_555
H6A C10A 0.971 1_555 1_555
H4A C8A 0.930 1_555 1_555
H3A C7A 0.930 1_555 1_555
H2A C6A 0.930 1_555 1_555
H1A C5A 0.930 1_555 1_555
C15A C2A 1.496 1_555 1_555
C16A C15A 1.387 1_555 1_555
C17A C16A 1.372 1_555 1_555
C18A C17A 1.377 1_555 1_555
C19A C18A 1.354 1_555 1_555
C20A C15A 1.398 1_555 1_555
H12A C20A 0.929 1_555 1_555
H11A C19A 0.930 1_555 1_555
H10A C18A 0.930 1_555 1_555
H9A C17A 0.929 1_555 1_555
H8A C16A 0.931 1_555 1_555
C10 C11 1.524 1_555 1_555
C12 C13 1.444 1_555 1_555
C19 C20 1.387 1_555 1_555
C8A C9A 1.393 1_555 1_555
C10A C11A 1.524 1_555 1_555
C12A C13A 1.444 1_555 1_555
C13A C14A 1.437 1_555 1_555
C19A C20A 1.387 1_555 1_555
#END
