
#######################################################################
#
#                 Cambridge Crystallographic Data Centre
#                                CCDC
#
#######################################################################
#
# If this CIF has been generated from an entry in the Cambridge
# Structural Database, then it will include bibliographic, chemical,
# crystal, experimental, refinement or atomic coordinate data resulting
# from the CCDC's data processing and validation procedures.
#
#######################################################################

data_CSD_CIF_XOXTUB
_audit_creation_date 2014-11-24
_audit_creation_method CSD-ConQuest-V1
_database_code_CSD XOXTUB
_database_code_depnum_ccdc_archive 'CCDC 1021295'
_chemical_formula_sum 'C27 H28'
_chemical_formula_moiety
;
C27 H28
;
_journal_coden_Cambridge 579
_journal_volume 33
_journal_year 2014
_journal_page_first 6200
_journal_name_full 'Organometallics '
loop_
_publ_author_name
"B.R.Hoggard"
"C.B.Larsen"
"N.T.Lucas"
_chemical_name_systematic
;
2,6-di-t-butyl-4H-cyclopenta[def]triphenylene
;
_cell_volume   2091.168
_exptl_crystal_colour 'colorless'
_exptl_crystal_density_diffrn 1.12
_exptl_special_details
;
Crystals were grown by slowly cooling a hot concentrated solution of the 
compound in ethanol to room temperature
;
_exptl_crystal_description 'plate'
_diffrn_ambient_temperature 100
#These two values have been output from a single CSD field.
_refine_ls_R_factor_gt 0.0424
_refine_ls_wR_factor_gt 0.0424
_symmetry_cell_setting monoclinic
_symmetry_space_group_name_H-M 'P 21/c'
_symmetry_Int_Tables_number 14
loop_
_symmetry_equiv_pos_site_id
_symmetry_equiv_pos_as_xyz
1 x,y,z
2 -x,1/2+y,1/2-z
3 -x,-y,-z
4 x,-1/2-y,-1/2+z
_cell_length_a 14.1125(3)
_cell_length_b 11.9094(3)
_cell_length_c 12.4655(3)
_cell_angle_alpha 90
_cell_angle_beta 93.508(2)
_cell_angle_gamma 90
_cell_formula_units_Z 4
loop_
_atom_type_symbol
_atom_type_radius_bond
C 0.68
H 0.23
loop_
_atom_site_label
_atom_site_type_symbol
_atom_site_fract_x
_atom_site_fract_y
_atom_site_fract_z
C1 C 0.71506(8) 0.40055(10) 0.15845(9)
H1 H 0.73670 0.45740 0.20740
C2 C 0.78019(9) 0.32482(10) 0.12023(10)
C3 C 0.74897(8) 0.23852(10) 0.04665(10)
H2 H 0.79350 0.18730 0.02010
C4 C 0.65434(8) 0.22984(10) 0.01446(9)
C5 C 0.59520(8) 0.14928(10) -0.05855(9)
H3 H 0.61540 0.15170 -0.13320
H4 H 0.60010 0.07120 -0.03160
C6 C 0.49421(8) 0.19488(9) -0.05211(9)
C7 C 0.40609(8) 0.16203(10) -0.09495(9)
H5 H 0.40000 0.09870 -0.14120
C8 C 0.32433(8) 0.22412(10) -0.06913(9)
C9 C 0.33283(8) 0.31796(10) -0.00219(9)
H6 H 0.27750 0.35880 0.01360
C10 C 0.42212(8) 0.35322(9) 0.04246(8)
C11 C 0.44421(8) 0.44736(9) 0.11638(9)
C12 C 0.37269(8) 0.52047(10) 0.14754(9)
H7 H 0.30920 0.50880 0.12010
C13 C 0.39249(9) 0.60899(10) 0.21714(9)
H8 H 0.34290 0.65690 0.23760
C14 C 0.48562(9) 0.6275(1) 0.25704(9)
H9 H 0.49960 0.68850 0.30440
C15 C 0.55741(9) 0.55759(10) 0.22798(9)
H10 H 0.62040 0.57120 0.25620
C16 C 0.53982(8) 0.46671(10) 0.15772(9)
C17 C 0.61791(8) 0.39465(9) 0.12607(9)
C18 C 0.59265(8) 0.30922(9) 0.05455(9)
C19 C 0.49854(8) 0.28924(9) 0.01470(9)
C20 C 0.88640(9) 0.33219(12) 0.15421(12)
C21 C 0.92307(13) 0.21815(14) 0.19528(19)
H11 H 0.88680 0.19430 0.25590
H12 H 0.99040 0.22450 0.21890
H13 H 0.91550 0.16260 0.13740
C22 C 0.90833(10) 0.41902(14) 0.24290(15)
H14 H 0.88860 0.49360 0.21700
H15 H 0.97670 0.41930 0.26230
H16 H 0.87370 0.39970 0.30610
C23 C 0.93967(11) 0.36767(18) 0.05600(16)
H17 H 0.93080 0.31060 -0.00030
H18 H 1.00750 0.37530 0.07670
H19 H 0.91480 0.43980 0.02890
C24 C 0.22692(8) 0.18594(10) -0.11771(10)
C25 C 0.21362(10) 0.05991(11) -0.09680(12)
H20 H 0.21930 0.04560 -0.01920
H21 H 0.26250 0.01730 -0.13190
H22 H 0.15070 0.03640 -0.12600
C26 C 0.22240(9) 0.20769(12) -0.23938(11)
H23 H 0.16290 0.17740 -0.27230
H24 H 0.27630 0.17090 -0.27080
H25 H 0.22510 0.28870 -0.25270
C27 C 0.14464(9) 0.24792(12) -0.06947(11)
H26 H 0.14820 0.23720 0.00860
H27 H 0.08430 0.21800 -0.10030
H28 H 0.14870 0.32820 -0.08580
loop_
_geom_bond_atom_site_label_1
_geom_bond_atom_site_label_2
_geom_bond_distance
_geom_bond_site_symmetry_1
_geom_bond_site_symmetry_2
C1 H1 0.949 1_555 1_555
C2 C1 1.392 1_555 1_555
C3 C2 1.429 1_555 1_555
H2 C3 0.950 1_555 1_555
C4 C3 1.375 1_555 1_555
C5 C4 1.534 1_555 1_555
H3 C5 0.990 1_555 1_555
H4 C5 0.990 1_555 1_555
C6 C5 1.532 1_555 1_555
C7 C6 1.380 1_555 1_555
H5 C7 0.950 1_555 1_555
C8 C7 1.424 1_555 1_555
C9 C8 1.395 1_555 1_555
H6 C9 0.951 1_555 1_555
C10 C9 1.410 1_555 1_555
C11 C10 1.472 1_555 1_555
C12 C11 1.406 1_555 1_555
H7 C12 0.950 1_555 1_555
C13 C12 1.383 1_555 1_555
H8 C13 0.950 1_555 1_555
C14 C13 1.394 1_555 1_555
H9 C14 0.949 1_555 1_555
C15 C14 1.377 1_555 1_555
H10 C15 0.950 1_555 1_555
C16 C11 1.433 1_555 1_555
C17 C1 1.407 1_555 1_555
C18 C4 1.398 1_555 1_555
C19 C6 1.398 1_555 1_555
C20 C2 1.535 1_555 1_555
C21 C20 1.530 1_555 1_555
H11 C21 0.980 1_555 1_555
H12 C21 0.980 1_555 1_555
H13 C21 0.980 1_555 1_555
C22 C20 1.532 1_555 1_555
H14 C22 0.980 1_555 1_555
H15 C22 0.980 1_555 1_555
H16 C22 0.980 1_555 1_555
C23 C20 1.535 1_555 1_555
H17 C23 0.979 1_555 1_555
H18 C23 0.980 1_555 1_555
H19 C23 0.980 1_555 1_555
C24 C8 1.537 1_555 1_555
C25 C24 1.537 1_555 1_555
H20 C25 0.981 1_555 1_555
H21 C25 0.981 1_555 1_555
H22 C25 0.980 1_555 1_555
C26 C24 1.536 1_555 1_555
H23 C26 0.981 1_555 1_555
H24 C26 0.980 1_555 1_555
H25 C26 0.980 1_555 1_555
C27 C24 1.530 1_555 1_555
H26 C27 0.980 1_555 1_555
H27 C27 0.980 1_555 1_555
H28 C27 0.980 1_555 1_555
C10 C19 1.382 1_555 1_555
C15 C16 1.405 1_555 1_555
C16 C17 1.470 1_555 1_555
C17 C18 1.385 1_555 1_555
C18 C19 1.409 1_555 1_555
#END
