
#######################################################################
#
#                 Cambridge Crystallographic Data Centre
#                                CCDC
#
#######################################################################
#
# If this CIF has been generated from an entry in the Cambridge
# Structural Database, then it will include bibliographic, chemical,
# crystal, experimental, refinement or atomic coordinate data resulting
# from the CCDC's data processing and validation procedures.
#
#######################################################################

data_CSD_CIF_XOXTIP
_audit_creation_date 2014-11-24
_audit_creation_method CSD-ConQuest-V1
_database_code_CSD XOXTIP
_database_code_depnum_ccdc_archive 'CCDC 1021293'
_chemical_formula_sum 'C19 H12'
_chemical_formula_moiety
;
C19 H12
;
_journal_coden_Cambridge 579
_journal_volume 33
_journal_year 2014
_journal_page_first 6200
_journal_name_full 'Organometallics '
loop_
_publ_author_name
"B.R.Hoggard"
"C.B.Larsen"
"N.T.Lucas"
_chemical_name_systematic
;
4H-cyclopenta[def]triphenylene
;
_cell_volume   2336.042
_exptl_crystal_colour 'colorless'
_exptl_crystal_density_diffrn 1.366
_exptl_special_details
;
Crystals were grown by slowly cooling a hot concentrated solution of the 
compound in methanol to room temperature
;
_exptl_crystal_description 'needle'
_diffrn_ambient_temperature 100
#These two values have been output from a single CSD field.
_refine_ls_R_factor_gt 0.0413
_refine_ls_wR_factor_gt 0.0413
_symmetry_cell_setting monoclinic
_symmetry_space_group_name_H-M 'P 21/n'
_symmetry_Int_Tables_number 14
loop_
_symmetry_equiv_pos_site_id
_symmetry_equiv_pos_as_xyz
1 x,y,z
2 1/2-x,1/2+y,1/2-z
3 -x,-y,-z
4 -1/2+x,-1/2-y,-1/2+z
_cell_length_a 21.3643(5)
_cell_length_b 5.2360(1)
_cell_length_c 22.2066(5)
_cell_angle_alpha 90
_cell_angle_beta 109.882(3)
_cell_angle_gamma 90
_cell_formula_units_Z 8
loop_
_atom_type_symbol
_atom_type_radius_bond
C 0.68
H 0.23
loop_
_atom_site_label
_atom_site_type_symbol
_atom_site_fract_x
_atom_site_fract_y
_atom_site_fract_z
C1 C 0.32174(6) 0.9080(3) 0.10412(6)
H1 H 0.34420 1.01080 0.08270
C2 C 0.35559(7) 0.7141(3) 0.14493(6)
H2 H 0.40120 0.68740 0.15060
C3 C 0.32542(7) 0.5550(3) 0.17838(6)
H3 H 0.34990 0.42360 0.20580
C4 C 0.25911(7) 0.5961(2) 0.16999(6)
C5 C 0.20928(7) 0.4744(3) 0.19713(6)
H4 H 0.20210 0.29200 0.18500
H5 H 0.22470 0.48880 0.24440
C6 C 0.14605(7) 0.6296(2) 0.16637(6)
C7 C 0.08268(7) 0.6234(3) 0.16948(6)
H6 H 0.07110 0.50340 0.19600
C8 C 0.03574(7) 0.7996(3) 0.13229(7)
H7 H -0.00800 0.79590 0.13420
C9 C 0.05053(7) 0.9796(3) 0.09278(6)
H8 H 0.01720 1.09510 0.06850
C10 C 0.11492(6) 0.9895(2) 0.08902(6)
C11 C 0.14106(6) 1.1629(2) 0.05114(6)
C12 C 0.10063(7) 1.3540(3) 0.01249(6)
H9 H 0.05550 1.36720 0.01010
C13 C 0.12473(7) 1.5222(3) -0.02198(6)
H10 H 0.09640 1.65020 -0.04750
C14 C 0.19068(7) 1.5046(3) -0.01933(6)
H11 H 0.20740 1.62080 -0.04300
C15 C 0.23170(7) 1.3186(2) 0.01763(6)
H12 H 0.27640 1.30770 0.01860
C16 C 0.20908(6) 1.1446(2) 0.05390(6)
C17 C 0.25390(6) 0.9520(2) 0.09461(6)
C18 C 0.22639(6) 0.7926(2) 0.12873(6)
C19 C 0.15935(6) 0.8118(2) 0.12639(6)
C20 C 0.51711(6) 0.9687(3) 0.10379(6)
H13 H 0.50780 0.98970 0.05910
C21 C 0.48782(6) 1.1298(3) 0.13603(7)
H14 H 0.45940 1.26190 0.11270
C22 C 0.49855(6) 1.1056(3) 0.20209(7)
H15 H 0.47770 1.21840 0.22290
C23 C 0.54023(6) 0.9136(2) 0.23564(6)
C24 C 0.56498(7) 0.8246(3) 0.30559(6)
H16 H 0.58760 0.96510 0.33470
H17 H 0.52770 0.76040 0.31840
C25 C 0.61379(6) 0.6102(2) 0.30619(6)
C26 C 0.65410(6) 0.4497(3) 0.35247(6)
H18 H 0.65560 0.46070 0.39560
C27 C 0.69307(6) 0.2689(3) 0.33406(7)
H19 H 0.72120 0.15910 0.36580
C28 C 0.69206(6) 0.2446(2) 0.27151(7)
H20 H 0.71890 0.11900 0.26120
C29 C 0.65123(6) 0.4062(2) 0.22332(6)
C30 C 0.64224(6) 0.4103(2) 0.15465(6)
C31 C 0.67627(7) 0.2356(3) 0.12909(7)
H21 H 0.70660 0.11900 0.15690
C32 C 0.66680(7) 0.2293(3) 0.06440(7)
H22 H 0.69010 0.10830 0.04810
C33 C 0.62288(7) 0.4008(3) 0.02302(7)
H23 H 0.61600 0.39580 -0.02150
C34 C 0.58940(7) 0.5779(3) 0.04677(6)
H24 H 0.56010 0.69520 0.01820
C35 C 0.59770(6) 0.5887(2) 0.11241(6)
C36 C 0.56063(6) 0.7742(2) 0.13701(6)
C37 C 0.57011(6) 0.7591(2) 0.20182(6)
C38 C 0.61415(6) 0.5818(2) 0.24361(6)
loop_
_geom_bond_atom_site_label_1
_geom_bond_atom_site_label_2
_geom_bond_distance
_geom_bond_site_symmetry_1
_geom_bond_site_symmetry_2
C1 H1 0.949 1_555 1_555
C2 C1 1.389 1_555 1_555
H2 C2 0.949 1_555 1_555
C3 C2 1.410 1_555 1_555
H3 C3 0.949 1_555 1_555
C4 C3 1.381 1_555 1_555
C5 C4 1.529 1_555 1_555
H4 C5 0.990 1_555 1_555
H5 C5 0.990 1_555 1_555
C6 C5 1.525 1_555 1_555
C7 C6 1.379 1_555 1_555
H6 C7 0.950 1_555 1_555
C8 C7 1.406 1_555 1_555
H7 C8 0.950 1_555 1_555
C9 C8 1.395 1_555 1_555
H8 C9 0.950 1_555 1_555
C10 C9 1.407 1_555 1_555
C11 C10 1.471 1_555 1_555
C12 C11 1.407 1_555 1_555
H9 C12 0.950 1_555 1_555
C13 C12 1.376 1_555 1_555
H10 C13 0.950 1_555 1_555
C14 C13 1.393 1_555 1_555
H11 C14 0.950 1_555 1_555
C15 C14 1.379 1_555 1_555
H12 C15 0.950 1_555 1_555
C16 C11 1.437 1_555 1_555
C17 C1 1.411 1_555 1_555
C18 C4 1.397 1_555 1_555
C19 C6 1.397 1_555 1_555
C20 H13 0.950 1_555 1_555
C21 C20 1.386 1_555 1_555
H14 C21 0.949 1_555 1_555
C22 C21 1.411 1_555 1_555
H15 C22 0.949 1_555 1_555
C23 C22 1.381 1_555 1_555
C24 C23 1.533 1_555 1_555
H16 C24 0.990 1_555 1_555
H17 C24 0.991 1_555 1_555
C25 C24 1.529 1_555 1_555
C26 C25 1.379 1_555 1_555
H18 C26 0.949 1_555 1_555
C27 C26 1.410 1_555 1_555
H19 C27 0.949 1_555 1_555
C28 C27 1.388 1_555 1_555
H20 C28 0.950 1_555 1_555
C29 C28 1.410 1_555 1_555
C30 C29 1.471 1_555 1_555
C31 C30 1.403 1_555 1_555
H21 C31 0.950 1_555 1_555
C32 C31 1.381 1_555 1_555
H22 C32 0.950 1_555 1_555
C33 C32 1.395 1_555 1_555
H23 C33 0.949 1_555 1_555
C34 C33 1.381 1_555 1_555
H24 C34 0.949 1_555 1_555
C35 C30 1.432 1_555 1_555
C36 C20 1.407 1_555 1_555
C37 C23 1.397 1_555 1_555
C38 C25 1.400 1_555 1_555
C10 C19 1.386 1_555 1_555
C15 C16 1.406 1_555 1_555
C16 C17 1.470 1_555 1_555
C17 C18 1.385 1_555 1_555
C18 C19 1.419 1_555 1_555
C29 C38 1.385 1_555 1_555
C34 C35 1.408 1_555 1_555
C35 C36 1.471 1_555 1_555
C36 C37 1.386 1_555 1_555
C37 C38 1.419 1_555 1_555
#END
