
#######################################################################
#
#                 Cambridge Crystallographic Data Centre
#                                CCDC
#
#######################################################################
#
# If this CIF has been generated from an entry in the Cambridge
# Structural Database, then it will include bibliographic, chemical,
# crystal, experimental, refinement or atomic coordinate data resulting
# from the CCDC's data processing and validation procedures.
#
#######################################################################

data_CSD_CIF_YETMEQ
_audit_creation_date 2007-04-11
_audit_creation_method CSD-ConQuest-V1
_database_code_CSD YETMEQ
_database_code_depnum_ccdc_archive 'CCDC 635890'
_chemical_formula_sum 'C14 H16'
_chemical_formula_moiety
;
C14 H16
;
_journal_coden_Cambridge 35
_journal_volume 71
_journal_year 2006
_journal_page_first 9357
_journal_name_full 'J.Org.Chem. '
loop_
_publ_author_name
"S.V.Rosokha"
"J.K.Kochi"
_chemical_name_systematic
;
2,3,6,7-Tetramethylnaphthalene
;
_cell_volume    515.936
_exptl_crystal_colour 'colorless'
_exptl_crystal_density_diffrn 1.186
_exptl_crystal_description 'block'
_exptl_crystal_preparation 'dichloromethane/acetonitrile'
_diffrn_ambient_temperature 173
#These two values have been output from a single CSD field.
_refine_ls_R_factor_gt 0.0491
_refine_ls_wR_factor_gt 0.0491
_symmetry_cell_setting triclinic
_symmetry_space_group_name_H-M 'P -1'
_symmetry_Int_Tables_number 2
loop_
_symmetry_equiv_pos_site_id
_symmetry_equiv_pos_as_xyz
1 x,y,z
2 -x,-y,-z
_cell_length_a 6.7195(13)
_cell_length_b 6.8080(13)
_cell_length_c 12.299(2)
_cell_angle_alpha 82.220(3)
_cell_angle_beta 81.350(4)
_cell_angle_gamma 68.610(3)
_cell_formula_units_Z 2
loop_
_atom_type_symbol
_atom_type_radius_bond
C 0.68
H 0.23
loop_
_atom_site_label
_atom_site_type_symbol
_atom_site_fract_x
_atom_site_fract_y
_atom_site_fract_z
C1 C 0.73682(14) 0.38155(13) 0.11964(7)
H1 H 0.65920 0.39450 0.19400
H2 H 0.70310 0.52210 0.07930
H3 H 0.89190 0.31900 0.12500
C2 C 0.66961(12) 0.24179(11) 0.05920(6)
C3 C 0.52192(12) 0.15278(12) 0.10972(6)
H4 H 0.46240 0.18090 0.18350
C4 C 0.45570(11) 0.02025(11) 0.05506(6)
C5 C 0.30428(12) -0.07386(12) 0.10624(6)
H5 H 0.24520 -0.04830 0.18040
C6 C 0.75946(12) 0.20082(12) -0.05189(6)
C7 C 0.92110(13) 0.29731(13) -0.10804(7)
H6 H 0.96070 0.25970 -0.18450
H7 H 0.85840 0.45170 -0.10750
H8 H 1.04960 0.24340 -0.06870
C8 C 1.30199(13) 0.41753(13) 0.40160(7)
H9 H 1.26440 0.46010 0.32580
H10 H 1.45860 0.35410 0.40050
H11 H 1.24820 0.54210 0.44390
C9 C 1.20180(12) 0.25841(11) 0.45466(6)
C10 C 1.07824(12) 0.19469(12) 0.39745(6)
H12 H 1.05600 0.25360 0.32380
C11 C 0.98302(12) 0.04370(11) 0.44509(6)
C12 C 0.85571(12) -0.02423(12) 0.38714(6)
H13 H 0.83240 0.03380 0.31350
C13 C 1.23491(12) 0.17136(12) 0.56573(6)
C14 C 1.36651(14) 0.24188(14) 0.63021(7)
H14 H 1.36530 0.17420 0.70580
H15 H 1.51480 0.20130 0.59480
H16 H 1.30510 0.39610 0.63210
C1A C 0.26318(14) -0.38155(13) -0.11964(7)
H1A H 0.34080 -0.39450 -0.19400
H2A H 0.29690 -0.52210 -0.07930
H3A H 0.10810 -0.31900 -0.12500
C2A C 0.33039(12) -0.24179(11) -0.05920(6)
C3A C 0.47808(12) -0.15278(12) -0.10972(6)
H4A H 0.53760 -0.18090 -0.18350
C4A C 0.54430(11) -0.02025(11) -0.05506(6)
C5A C 0.69572(12) 0.07386(12) -0.10624(6)
H5A H 0.75480 0.04830 -0.18040
C6A C 0.24054(12) -0.20082(12) 0.05189(6)
C7A C 0.07890(13) -0.29731(13) 0.10804(7)
H6A H 0.03930 -0.25970 0.18450
H7A H 0.14160 -0.45170 0.10750
H8A H -0.04960 -0.24340 0.06870
C8A C 0.69801(13) -0.41753(13) 0.59840(7)
H9A H 0.73560 -0.46010 0.67420
H10A H 0.54140 -0.35410 0.59950
H11A H 0.75180 -0.54210 0.55610
C9A C 0.79820(12) -0.25841(11) 0.54534(6)
C10A C 0.92176(12) -0.19469(12) 0.60255(6)
H12A H 0.94400 -0.25360 0.67620
C11A C 1.01698(12) -0.04370(11) 0.55491(6)
C12A C 1.14429(12) 0.02423(12) 0.61286(6)
H13A H 1.16760 -0.03380 0.68650
C13A C 0.76509(12) -0.17136(12) 0.43427(6)
C14A C 0.63349(14) -0.24188(14) 0.36979(7)
H14A H 0.63470 -0.17420 0.29420
H15A H 0.48520 -0.20130 0.40520
H16A H 0.69490 -0.39610 0.36790
loop_
_geom_bond_atom_site_label_1
_geom_bond_atom_site_label_2
_geom_bond_distance
_geom_bond_site_symmetry_1
_geom_bond_site_symmetry_2
C1 H1 0.980 1_555 1_555
H2 C1 0.980 1_555 1_555
H3 C1 0.980 1_555 1_555
C2 C1 1.506 1_555 1_555
C3 C2 1.375 1_555 1_555
H4 C3 0.950 1_555 1_555
C4 C3 1.418 1_555 1_555
C5 C4 1.420 1_555 1_555
H5 C5 0.951 1_555 1_555
C6 C2 1.429 1_555 1_555
C7 C6 1.503 1_555 1_555
H6 C7 0.980 1_555 1_555
H7 C7 0.980 1_555 1_555
H8 C7 0.980 1_555 1_555
C8 H9 0.980 1_555 1_555
H10 C8 0.980 1_555 1_555
H11 C8 0.980 1_555 1_555
C9 C8 1.504 1_555 1_555
C10 C9 1.376 1_555 1_555
H12 C10 0.950 1_555 1_555
C11 C10 1.419 1_555 1_555
C12 C11 1.419 1_555 1_555
H13 C12 0.950 1_555 1_555
C13 C9 1.429 1_555 1_555
C14 C13 1.505 1_555 1_555
H14 C14 0.980 1_555 1_555
H15 C14 0.980 1_555 1_555
H16 C14 0.980 1_555 1_555
C1A H1A 0.980 1_555 1_555
H2A C1A 0.980 1_555 1_555
H3A C1A 0.980 1_555 1_555
C2A C1A 1.506 1_555 1_555
C3A C2A 1.375 1_555 1_555
H4A C3A 0.950 1_555 1_555
C4A C4 1.415 1_555 1_555
C5A C6 1.375 1_555 1_555
H5A C5A 0.951 1_555 1_555
C6A C5 1.375 1_555 1_555
C7A C6A 1.503 1_555 1_555
H6A C7A 0.980 1_555 1_555
H7A C7A 0.980 1_555 1_555
H8A C7A 0.980 1_555 1_555
C8A H9A 0.980 1_555 1_555
H10A C8A 0.980 1_555 1_555
H11A C8A 0.980 1_555 1_555
C9A C8A 1.504 1_555 1_555
C10A C9A 1.376 1_555 1_555
H12A C10A 0.950 1_555 1_555
C11A C11 1.417 1_555 1_555
C12A C13 1.375 1_555 1_555
H13A C12A 0.950 1_555 1_555
C13A C12 1.375 1_555 1_555
C14A C13A 1.505 1_555 1_555
H14A C14A 0.980 1_555 1_555
H15A C14A 0.980 1_555 1_555
H16A C14A 0.980 1_555 1_555
C2A C6A 1.429 1_555 1_555
C3A C4A 1.418 1_555 1_555
C4A C5A 1.420 1_555 1_555
C9A C13A 1.429 1_555 1_555
C10A C11A 1.419 1_555 1_555
C11A C12A 1.419 1_555 1_555
#END
