
#######################################################################
#
#                 Cambridge Crystallographic Data Centre
#                                CCDC
#
#######################################################################
#
# If this CIF has been generated from an entry in the Cambridge
# Structural Database, then it will include bibliographic, chemical,
# crystal, experimental, refinement or atomic coordinate data resulting
# from the CCDC's data processing and validation procedures.
#
#######################################################################

data_CSD_CIF_YEWLUK
_audit_creation_date 2018-01-31
_audit_creation_method CSD-ConQuest-V1
_database_code_CSD YEWLUK
_database_code_depnum_ccdc_archive 'CCDC 1518668'
_chemical_formula_sum 'C36 H24'
_chemical_formula_moiety
;
C36 H24
;
_journal_coden_Cambridge 38
_journal_volume 359
_journal_year 2018
_journal_page_first 435
_journal_name_full 'Science '
loop_
_publ_author_name
"Y.Koga"
"T.Kaneda"
"Y.Saito"
"K.Murakami"
"K.Itami"
_chemical_name_systematic
;
1,4,6-triphenyltriphenylene
;
_cell_volume   2457.037
_exptl_crystal_colour 'colorless'
_exptl_crystal_density_diffrn 1.234
_exptl_crystal_description 'block'
_diffrn_ambient_temperature 123
#These two values have been output from a single CSD field.
_refine_ls_R_factor_gt 0.066
_refine_ls_wR_factor_gt 0.066
_symmetry_cell_setting triclinic
_symmetry_space_group_name_H-M 'P -1'
_symmetry_Int_Tables_number 2
loop_
_symmetry_equiv_pos_site_id
_symmetry_equiv_pos_as_xyz
1 x,y,z
2 -x,-y,-z
_cell_length_a 12.807(3)
_cell_length_b 13.209(3)
_cell_length_c 15.980(3)
_cell_angle_alpha 70.130(14)
_cell_angle_beta 75.471(14)
_cell_angle_gamma 88.095(18)
_cell_formula_units_Z 4
loop_
_atom_type_symbol
_atom_type_radius_bond
C 0.68
H 0.23
loop_
_atom_site_label
_atom_site_type_symbol
_atom_site_fract_x
_atom_site_fract_y
_atom_site_fract_z
C1 C 0.7026(3) 0.8534(2) 0.4137(2)
C2 C 0.6813(3) 0.8271(2) 0.5093(2)
H1 H 0.61060 0.83540 0.54220
C3 C 0.7583(3) 0.7895(2) 0.5582(2)
C4 C 0.8637(3) 0.7824(2) 0.5074(2)
H2 H 0.91870 0.75700 0.53850
C5 C 0.8880(3) 0.8118(2) 0.4132(2)
H3 H 0.96020 0.80770 0.38060
C6 C 0.8092(3) 0.8479(2) 0.3636(2)
C7 C 0.8340(3) 0.8793(2) 0.2638(2)
C8 C 0.9319(3) 0.8547(2) 0.2117(2)
H4 H 0.98470 0.82020 0.24250
C9 C 0.9528(3) 0.8787(2) 0.1193(2)
H5 H 1.01950 0.86160 0.08620
C10 C 0.8758(3) 0.9285(2) 0.0733(2)
H6 H 0.88850 0.94310 0.00900
C11 C 0.7800(3) 0.9567(2) 0.1221(2)
H7 H 0.72820 0.99150 0.09010
C12 C 0.7581(3) 0.9353(2) 0.2168(2)
C13 C 0.6521(3) 0.9563(2) 0.2696(2)
C14 C 0.5784(3) 1.0278(2) 0.2263(2)
C15 C 0.4724(3) 1.0228(2) 0.2765(2)
H8 H 0.42320 1.07010 0.24920
C16 C 0.4359(3) 0.9510(2) 0.3651(2)
H9 H 0.36120 0.94550 0.39530
C17 C 0.5061(3) 0.8871(2) 0.4108(2)
C18 C 0.6185(3) 0.8974(2) 0.3647(2)
C19 C 0.7277(3) 0.7593(2) 0.6604(2)
C20 C 0.8026(3) 0.7644(3) 0.7081(2)
H10 H 0.87560 0.78670 0.67510
C21 C 0.7737(3) 0.7377(3) 0.8028(3)
H11 H 0.82630 0.74240 0.83420
C22 C 0.6683(3) 0.7042(3) 0.8513(3)
H12 H 0.64810 0.68560 0.91640
C23 C 0.5928(3) 0.6979(2) 0.8057(2)
H13 H 0.52030 0.67470 0.83930
C24 C 0.6214(3) 0.7250(2) 0.7113(2)
H14 H 0.56820 0.72030 0.68050
C25 C 0.6102(3) 1.1168(3) 0.1356(2)
C26 C 0.6975(3) 1.1890(3) 0.1145(2)
H15 H 0.74440 1.17540 0.15420
C27 C 0.7170(3) 1.2805(3) 0.0361(2)
H16 H 0.77610 1.33000 0.02300
C28 C 0.6506(3) 1.2993(3) -0.0224(2)
H17 H 0.66340 1.36250 -0.07550
C29 C 0.5657(3) 1.2273(3) -0.0045(2)
H18 H 0.52080 1.23980 -0.04580
C30 C 0.5464(3) 1.1360(3) 0.0746(2)
H19 H 0.48810 1.08610 0.08670
C31 C 0.4554(3) 0.8072(2) 0.5031(2)
C32 C 0.4620(3) 0.6962(3) 0.5200(2)
H20 H 0.50210 0.67120 0.47290
C33 C 0.4109(3) 0.6231(3) 0.6044(3)
H21 H 0.41520 0.54820 0.61430
C34 C 0.3533(3) 0.6568(3) 0.6751(3)
H22 H 0.31920 0.60560 0.73340
C35 C 0.3461(3) 0.7675(3) 0.6591(3)
H23 H 0.30680 0.79200 0.70670
C36 C 0.3956(3) 0.8403(3) 0.5749(2)
H24 H 0.38950 0.91510 0.56480
C37 C 0.1587(2) 0.7372(2) 0.5024(2)
C38 C 0.1303(2) 0.7228(2) 0.5958(2)
H25 H 0.13370 0.65270 0.63810
C39 C 0.0971(3) 0.8051(2) 0.6310(2)
C40 C 0.0971(3) 0.9090(2) 0.5665(2)
H26 H 0.07490 0.96740 0.58740
C41 C 0.1284(3) 0.9266(2) 0.4745(2)
H27 H 0.12850 0.99780 0.43280
C42 C 0.1608(3) 0.8428(2) 0.4384(2)
C43 C 0.1978(3) 0.8621(2) 0.3407(2)
C44 C 0.1803(3) 0.9582(2) 0.2739(2)
H28 H 0.14350 1.01300 0.29370
C45 C 0.2140(3) 0.9753(3) 0.1825(2)
H29 H 0.20230 1.04190 0.13940
C46 C 0.2662(3) 0.8948(3) 0.1515(3)
H30 H 0.28860 0.90530 0.08770
C47 C 0.2842(3) 0.8000(3) 0.2158(2)
H31 H 0.31910 0.74540 0.19470
C48 C 0.2537(3) 0.7806(2) 0.3103(2)
C49 C 0.2676(3) 0.6765(2) 0.3781(2)
C50 C 0.3399(3) 0.5996(2) 0.3539(2)
C51 C 0.3261(3) 0.4940(2) 0.4150(2)
H32 H 0.37200 0.44160 0.39940
C52 C 0.2483(3) 0.4628(2) 0.4970(2)
H33 H 0.23750 0.38860 0.53390
C53 C 0.1844(3) 0.5381(2) 0.5276(2)
C54 C 0.2022(3) 0.6486(2) 0.4684(2)
C55 C 0.0675(3) 0.7829(2) 0.7312(2)
C56 C 0.0462(3) 0.6781(3) 0.7950(2)
H34 H 0.05120 0.61910 0.77330
C57 C 0.0182(3) 0.6582(3) 0.8879(3)
H35 H 0.00570 0.58580 0.92910
C58 C 0.0077(3) 0.7413(3) 0.9229(2)
H36 H -0.01280 0.72720 0.98740
C59 C 0.0281(3) 0.8462(3) 0.8610(2)
H37 H 0.02190 0.90470 0.88350
C60 C 0.0567(3) 0.8665(3) 0.7684(2)
H38 H 0.06980 0.93920 0.72780
C61 C 0.4356(3) 0.6248(2) 0.2739(2)
C62 C 0.5138(3) 0.7047(3) 0.2576(2)
H39 H 0.49990 0.75270 0.29150
C63 C 0.6112(3) 0.7154(3) 0.1932(3)
H40 H 0.66370 0.77000 0.18390
C64 C 0.6337(3) 0.6470(3) 0.1414(2)
H41 H 0.70110 0.65410 0.09760
C65 C 0.5560(3) 0.5690(3) 0.1553(2)
H42 H 0.56930 0.52320 0.11950
C66 C 0.4595(3) 0.5568(2) 0.2205(2)
H43 H 0.40780 0.50150 0.22990
C67 C 0.1003(3) 0.4967(2) 0.6152(2)
C68 C 0.1269(3) 0.4367(2) 0.6962(2)
H44 H 0.20030 0.42190 0.69510
C69 C 0.0489(4) 0.3983(3) 0.7782(3)
H45 H 0.06920 0.35930 0.83320
C70 C -0.0596(4) 0.4163(3) 0.7811(3)
H46 H -0.11370 0.38960 0.83750
C71 C -0.0868(3) 0.4733(3) 0.7007(3)
H47 H -0.16050 0.48530 0.70170
C72 C -0.0091(3) 0.5133(3) 0.6189(3)
H48 H -0.02990 0.55270 0.56430
loop_
_geom_bond_atom_site_label_1
_geom_bond_atom_site_label_2
_geom_bond_distance
_geom_bond_site_symmetry_1
_geom_bond_site_symmetry_2
C1 C2 1.402 1_555 1_555
C2 H1 0.950 1_555 1_555
C3 C2 1.386 1_555 1_555
C4 C3 1.408 1_555 1_555
H2 C4 0.950 1_555 1_555
C5 C4 1.374 1_555 1_555
H3 C5 0.951 1_555 1_555
C6 C1 1.412 1_555 1_555
C7 C6 1.456 1_555 1_555
C8 C7 1.416 1_555 1_555
H4 C8 0.949 1_555 1_555
C9 C8 1.357 1_555 1_555
H5 C9 0.950 1_555 1_555
C10 C9 1.392 1_555 1_555
H6 C10 0.950 1_555 1_555
C11 C10 1.393 1_555 1_555
H7 C11 0.950 1_555 1_555
C12 C7 1.413 1_555 1_555
C13 C12 1.480 1_555 1_555
C14 C13 1.444 1_555 1_555
C15 C14 1.384 1_555 1_555
H8 C15 0.951 1_555 1_555
C16 C15 1.381 1_555 1_555
H9 C16 0.950 1_555 1_555
C17 C16 1.383 1_555 1_555
C18 C1 1.478 1_555 1_555
C19 C3 1.492 1_555 1_555
C20 C19 1.383 1_555 1_555
H10 C20 0.951 1_555 1_555
C21 C20 1.384 1_555 1_555
H11 C21 0.950 1_555 1_555
C22 C21 1.379 1_555 1_555
H12 C22 0.951 1_555 1_555
C23 C22 1.369 1_555 1_555
H13 C23 0.949 1_555 1_555
C24 C19 1.398 1_555 1_555
H14 C24 0.950 1_555 1_555
C25 C14 1.492 1_555 1_555
C26 C25 1.392 1_555 1_555
H15 C26 0.950 1_555 1_555
C27 C26 1.388 1_555 1_555
H16 C27 0.951 1_555 1_555
C28 C27 1.373 1_555 1_555
H17 C28 0.950 1_555 1_555
C29 C28 1.377 1_555 1_555
H18 C29 0.951 1_555 1_555
C30 C25 1.378 1_555 1_555
H19 C30 0.950 1_555 1_555
C31 C17 1.489 1_555 1_555
C32 C31 1.401 1_555 1_555
H20 C32 0.950 1_555 1_555
C33 C32 1.376 1_555 1_555
H21 C33 0.949 1_555 1_555
C34 C33 1.386 1_555 1_555
H22 C34 0.950 1_555 1_555
C35 C34 1.400 1_555 1_555
H23 C35 0.949 1_555 1_555
C36 C31 1.404 1_555 1_555
H24 C36 0.949 1_555 1_555
C37 C38 1.391 1_555 1_555
C38 H25 0.950 1_555 1_555
C39 C38 1.394 1_555 1_555
C40 C39 1.409 1_555 1_555
H26 C40 0.949 1_555 1_555
C41 C40 1.362 1_555 1_555
H27 C41 0.950 1_555 1_555
C42 C37 1.418 1_555 1_555
C43 C42 1.447 1_555 1_555
C44 C43 1.408 1_555 1_555
H28 C44 0.951 1_555 1_555
C45 C44 1.355 1_555 1_555
H29 C45 0.950 1_555 1_555
C46 C45 1.403 1_555 1_555
H30 C46 0.949 1_555 1_555
C47 C46 1.379 1_555 1_555
H31 C47 0.950 1_555 1_555
C48 C43 1.427 1_555 1_555
C49 C48 1.471 1_555 1_555
C50 C49 1.437 1_555 1_555
C51 C50 1.391 1_555 1_555
H32 C51 0.951 1_555 1_555
C52 C51 1.373 1_555 1_555
H33 C52 0.950 1_555 1_555
C53 C52 1.405 1_555 1_555
C54 C37 1.487 1_555 1_555
C55 C39 1.476 1_555 1_555
C56 C55 1.399 1_555 1_555
H34 C56 0.949 1_555 1_555
C57 C56 1.369 1_555 1_555
H35 C57 0.950 1_555 1_555
C58 C57 1.380 1_555 1_555
H36 C58 0.950 1_555 1_555
C59 C58 1.389 1_555 1_555
H37 C59 0.950 1_555 1_555
C60 C55 1.410 1_555 1_555
H38 C60 0.951 1_555 1_555
C61 C50 1.483 1_555 1_555
C62 C61 1.392 1_555 1_555
H39 C62 0.951 1_555 1_555
C63 C62 1.380 1_555 1_555
H40 C63 0.951 1_555 1_555
C64 C63 1.399 1_555 1_555
H41 C64 0.949 1_555 1_555
C65 C64 1.379 1_555 1_555
H42 C65 0.950 1_555 1_555
C66 C61 1.414 1_555 1_555
H43 C66 0.950 1_555 1_555
C67 C53 1.477 1_555 1_555
C68 C67 1.388 1_555 1_555
H44 C68 0.951 1_555 1_555
C69 C68 1.377 1_555 1_555
H45 C69 0.950 1_555 1_555
C70 C69 1.394 1_555 1_555
H46 C70 0.951 1_555 1_555
C71 C70 1.374 1_555 1_555
H47 C71 0.949 1_555 1_555
C72 C67 1.401 1_555 1_555
H48 C72 0.950 1_555 1_555
C5 C6 1.409 1_555 1_555
C11 C12 1.396 1_555 1_555
C13 C18 1.411 1_555 1_555
C17 C18 1.430 1_555 1_555
C23 C24 1.379 1_555 1_555
C29 C30 1.393 1_555 1_555
C35 C36 1.367 1_555 1_555
C41 C42 1.419 1_555 1_555
C47 C48 1.395 1_555 1_555
C49 C54 1.404 1_555 1_555
C53 C54 1.433 1_555 1_555
C59 C60 1.364 1_555 1_555
C65 C66 1.375 1_555 1_555
C71 C72 1.375 1_555 1_555
#END
