
#######################################################################
#
#                 Cambridge Crystallographic Data Centre
#                                CCDC
#
#######################################################################
#
# If this CIF has been generated from an entry in the Cambridge
# Structural Database, then it will include bibliographic, chemical,
# crystal, experimental, refinement or atomic coordinate data resulting
# from the CCDC's data processing and validation procedures.
#
#######################################################################

data_CSD_CIF_YIBHUO
_audit_creation_date 2013-06-16
_audit_creation_method CSD-ConQuest-V1
_database_code_CSD YIBHUO
_database_code_depnum_ccdc_archive 'CCDC 833205'
_chemical_formula_sum 'C37 H28'
_chemical_formula_moiety
;
C37 H28
;
_journal_coden_Cambridge 35
_journal_volume 77
_journal_year 2012
_journal_page_first 7124
_journal_name_full 'J.Org.Chem. '
loop_
_publ_author_name
"Zhiqiang Liu"
"Yuanyuan Wang"
"Ying Chen"
"Jie Liu"
"Qi Fang"
"C.Kleeberg"
"T.B.Marder"
_chemical_name_systematic
;
2,4,7-tris(4-Methylphenyl)pyrene
;
_chemical_melting_point 475
_cell_volume   2495.824
_exptl_crystal_colour 'colorless'
_exptl_crystal_density_diffrn 1.258
_exptl_crystal_description 'needle'
_diffrn_ambient_temperature 296
#These two values have been output from a single CSD field.
_refine_ls_R_factor_gt 0.0596
_refine_ls_wR_factor_gt 0.0596
_symmetry_cell_setting monoclinic
_symmetry_space_group_name_H-M 'P 21/c'
_symmetry_Int_Tables_number 14
loop_
_symmetry_equiv_pos_site_id
_symmetry_equiv_pos_as_xyz
1 x,y,z
2 -x,1/2+y,1/2-z
3 -x,-y,-z
4 x,-1/2-y,-1/2+z
_cell_length_a 6.459(5)
_cell_length_b 15.980(12)
_cell_length_c 24.291(19)
_cell_angle_alpha 90
_cell_angle_beta 95.458(11)
_cell_angle_gamma 90
_cell_formula_units_Z 4
loop_
_atom_type_symbol
_atom_type_radius_bond
C 0.68
H 0.23
loop_
_atom_site_label
_atom_site_type_symbol
_atom_site_fract_x
_atom_site_fract_y
_atom_site_fract_z
C1 C 2.2472(4) 0.1449(2) 0.90983(12)
H1 H 2.34950 0.18550 0.90180
H2 H 2.29270 0.09010 0.90000
H3 H 2.22930 0.14620 0.94860
C2 C 2.0432(4) 0.1648(2) 0.87704(11)
C3 C 1.9347(4) 0.1061(2) 0.84642(13)
H4 H 1.98780 0.05210 0.84550
C4 C 1.7470(4) 0.1239(2) 0.81647(13)
H5 H 1.67830 0.08150 0.79580
C5 C 1.6592(3) 0.20166(18) 0.81615(10)
C6 C 1.4573(4) 0.22092(17) 0.78427(10)
C7 C 1.3633(4) 0.29872(17) 0.78693(11)
H6 H 1.43050 0.33990 0.80900
C8 C 1.1734(4) 0.31788(16) 0.7581(1)
C9 C 1.0705(3) 0.25627(15) 0.72459(9)
C10 C 0.8768(3) 0.27293(15) 0.69461(9)
C11 C 0.7853(4) 0.35276(16) 0.69758(11)
C12 C 0.5973(4) 0.36896(16) 0.66720(11)
H7 H 0.53690 0.42140 0.67000
C13 C 0.4959(3) 0.30986(16) 0.63272(9)
C14 C 0.2971(3) 0.32853(16) 0.5996(1)
C15 C 0.2290(5) 0.4086(2) 0.58944(13)
H8 H 0.31040 0.45310 0.60350
C16 C 0.0424(5) 0.4249(2) 0.55872(14)
H9 H 0.00100 0.48020 0.55300
C17 C -0.0834(4) 0.3625(2) 0.53641(11)
C18 C -0.2865(4) 0.3805(2) 0.50266(13)
H10 H -0.27060 0.37170 0.46420
H11 H -0.32600 0.43760 0.50830
H12 H -0.39210 0.34380 0.51400
C19 C 1.9583(5) 0.2420(2) 0.87673(14)
H13 H 2.02790 0.28420 0.89730
C20 C 1.7713(4) 0.2603(2) 0.84672(13)
H14 H 1.72010 0.31460 0.84740
C21 C 1.3531(3) 0.16135(16) 0.75097(10)
H15 H 1.41270 0.10860 0.74860
C22 C 1.1634(3) 0.17684(15) 0.72095(9)
C23 C 1.0775(4) 0.39752(18) 0.76058(13)
H16 H 1.14350 0.43930 0.78230
C24 C 0.8933(4) 0.41365(18) 0.73214(13)
H17 H 0.83430 0.46640 0.73510
C25 C -0.0146(4) 0.2838(2) 0.54562(12)
H18 H -0.09400 0.23950 0.53040
C26 C 0.1694(4) 0.26673(18) 0.57690(11)
H19 H 0.20840 0.21120 0.58280
C27 C 0.5887(3) 0.23220(15) 0.62982(9)
H20 H 0.52420 0.19220 0.60620
C28 C 0.7736(3) 0.21120(15) 0.66047(9)
C29 C 0.8700(3) 0.13010(15) 0.65746(9)
C30 C 1.0560(4) 0.11554(16) 0.68658(10)
H21 H 1.11630 0.06300 0.68400
C31 C 0.7704(4) 0.06221(16) 0.6228(1)
C32 C 0.8789(4) 0.02169(17) 0.58460(11)
H22 H 1.01380 0.03860 0.57990
C33 C 0.7920(5) -0.04358(18) 0.55308(12)
H23 H 0.86900 -0.06950 0.52750
C34 C 0.5938(5) -0.07074(17) 0.55890(12)
C35 C 0.4841(4) -0.03044(17) 0.59714(12)
H24 H 0.34930 -0.04750 0.60180
C36 C 0.5714(4) 0.03457(16) 0.62841(11)
H25 H 0.49420 0.06050 0.65400
C37 C 0.4949(6) -0.14065(19) 0.52412(14)
H26 H 0.40040 -0.17080 0.54500
H27 H 0.60090 -0.17790 0.51370
H28 H 0.42030 -0.11780 0.49150
loop_
_geom_bond_atom_site_label_1
_geom_bond_atom_site_label_2
_geom_bond_distance
_geom_bond_site_symmetry_1
_geom_bond_site_symmetry_2
C1 H1 0.959 1_555 1_555
H2 C1 0.961 1_555 1_555
H3 C1 0.960 1_555 1_555
C2 C1 1.507 1_555 1_555
C3 C2 1.351 1_555 1_555
H4 C3 0.930 1_555 1_555
C4 C3 1.383 1_555 1_555
H5 C4 0.930 1_555 1_555
C5 C4 1.366 1_555 1_555
C6 C5 1.484 1_555 1_555
C7 C6 1.388 1_555 1_555
H6 C7 0.930 1_555 1_555
C8 C7 1.388 1_555 1_555
C9 C8 1.404 1_555 1_555
C10 C9 1.412 1_555 1_555
C11 C10 1.411 1_555 1_555
C12 C11 1.384 1_555 1_555
H7 C12 0.930 1_555 1_555
C13 C12 1.385 1_555 1_555
C14 C13 1.479 1_555 1_555
C15 C14 1.368 1_555 1_555
H8 C15 0.930 1_555 1_555
C16 C15 1.381 1_555 1_555
H9 C16 0.930 1_555 1_555
C17 C16 1.365 1_555 1_555
C18 C17 1.507 1_555 1_555
H10 C18 0.960 1_555 1_555
H11 C18 0.961 1_555 1_555
H12 C18 0.960 1_555 1_555
C19 C2 1.350 1_555 1_555
H13 C19 0.929 1_555 1_555
C20 C5 1.361 1_555 1_555
H14 C20 0.929 1_555 1_555
C21 C6 1.382 1_555 1_555
H15 C21 0.931 1_555 1_555
C22 C9 1.410 1_555 1_555
C23 C8 1.419 1_555 1_555
H16 C23 0.929 1_555 1_555
C24 C11 1.424 1_555 1_555
H17 C24 0.931 1_555 1_555
C25 C17 1.345 1_555 1_555
H18 C25 0.930 1_555 1_555
C26 C14 1.369 1_555 1_555
H19 C26 0.930 1_555 1_555
C27 C13 1.383 1_555 1_555
H20 C27 0.931 1_555 1_555
C28 C10 1.414 1_555 1_555
C29 C28 1.443 1_555 1_555
C30 C22 1.424 1_555 1_555
H21 C30 0.930 1_555 1_555
C31 C29 1.482 1_555 1_555
C32 C31 1.377 1_555 1_555
H22 C32 0.930 1_555 1_555
C33 C32 1.381 1_555 1_555
H23 C33 0.929 1_555 1_555
C34 C33 1.372 1_555 1_555
C35 C34 1.380 1_555 1_555
H24 C35 0.929 1_555 1_555
C36 C31 1.378 1_555 1_555
H25 C36 0.930 1_555 1_555
C37 C34 1.506 1_555 1_555
H26 C37 0.960 1_555 1_555
H27 C37 0.959 1_555 1_555
H28 C37 0.960 1_555 1_555
C19 C20 1.381 1_555 1_555
C21 C22 1.387 1_555 1_555
C23 C24 1.343 1_555 1_555
C25 C26 1.376 1_555 1_555
C27 C28 1.387 1_555 1_555
C29 C30 1.355 1_555 1_555
C35 C36 1.376 1_555 1_555
#END
