
#######################################################################
#
#                 Cambridge Crystallographic Data Centre
#                                CCDC
#
#######################################################################
#
# If this CIF has been generated from an entry in the Cambridge
# Structural Database, then it will include bibliographic, chemical,
# crystal, experimental, refinement or atomic coordinate data resulting
# from the CCDC's data processing and validation procedures.
#
#######################################################################

data_CSD_CIF_YIFVOA
_audit_creation_date 2013-06-16
_audit_creation_method CSD-ConQuest-V1
_database_code_CSD YIFVOA
_database_code_depnum_ccdc_archive 'CCDC 922263'
_chemical_formula_sum 'C32 H30'
_chemical_formula_moiety
;
C32 H30
;
_journal_coden_Cambridge 222
_journal_volume 42
_journal_year 2013
_journal_page_first 12326
_journal_name_full 'Dalton Trans. '
loop_
_publ_author_name
"C.Hoffend"
"M.Diefenbach"
"E.Januszewski"
"M.Bolte"
"H.-W.Lerner"
"M.C.Holthausen"
"M.Wagner"
_chemical_name_systematic
;
9,10-Dimesitylanthracene
;
_cell_volume   1233.872
_exptl_crystal_colour 'colorless'
_exptl_crystal_density_diffrn 1.116
_exptl_crystal_description 'plate'
_diffrn_ambient_temperature 173
#These two values have been output from a single CSD field.
_refine_ls_R_factor_gt 0.0541
_refine_ls_wR_factor_gt 0.0541
_symmetry_cell_setting monoclinic
_symmetry_space_group_name_H-M 'P 21/c'
_symmetry_Int_Tables_number 14
loop_
_symmetry_equiv_pos_site_id
_symmetry_equiv_pos_as_xyz
1 x,y,z
2 -x,1/2+y,1/2-z
3 -x,-y,-z
4 x,-1/2-y,-1/2+z
_cell_length_a 7.2622(4)
_cell_length_b 19.4203(12)
_cell_length_c 8.8976(5)
_cell_angle_alpha 90
_cell_angle_beta 100.495(5)
_cell_angle_gamma 90
_cell_formula_units_Z 2
loop_
_atom_type_symbol
_atom_type_radius_bond
C 0.68
H 0.23
loop_
_atom_site_label
_atom_site_type_symbol
_atom_site_fract_x
_atom_site_fract_y
_atom_site_fract_z
C1 C 0.73181(17) 0.41202(6) 0.72500(13)
C2 C 0.65540(18) 0.35157(6) 0.77344(14)
C3 C 0.7656(2) 0.31054(7) 0.88337(16)
H1 H 0.71350 0.26960 0.91660
C4 C 0.9483(2) 0.32771(8) 0.94525(17)
C5 C 1.0214(2) 0.38761(9) 0.89538(17)
H2 H 1.14700 0.39990 0.93690
C6 C 0.91678(18) 0.43039(7) 0.78635(15)
C7 C 0.4572(2) 0.33039(8) 0.71016(19)
H3 H 0.42320 0.29090 0.76790
H4 H 0.44690 0.31760 0.60240
H5 H 0.37250 0.36890 0.71890
C8 C 1.0659(3) 0.28235(12) 1.0638(3)
H6 H 0.98370 0.25290 1.11200
H7 H 1.14180 0.31120 1.14170
H8 H 1.14840 0.25350 1.01440
C9 C 1.0031(2) 0.49526(9) 0.7376(2)
H9 H 0.95800 0.53500 0.78840
H10 H 0.96770 0.50060 0.62650
H11 H 1.13970 0.49240 0.76600
C10 C 0.61428(16) 0.45735(6) 0.60963(13)
C11 C 0.59039(17) 0.44163(6) 0.45299(13)
C12 C 0.67997(19) 0.38333(7) 0.39970(15)
H12 H 0.75880 0.35500 0.47120
C13 C 0.6543(2) 0.36768(7) 0.24820(16)
H13 H 0.71400 0.32840 0.21520
C14 C 0.5392(2) 0.40965(7) 0.13946(15)
H14 H 0.52180 0.39820 0.03400
C15 C 0.45324(19) 0.46620(7) 0.18492(14)
H15 H 0.37750 0.49410 0.11040
C16 C 0.47487(17) 0.48446(6) 0.34278(13)
C1B C 0.26819(17) 0.58798(6) 0.27500(13)
C2B C 0.34460(18) 0.64843(6) 0.22656(14)
C3B C 0.2344(2) 0.68946(7) 0.11663(16)
H1B H 0.28650 0.73040 0.08340
C4B C 0.0517(2) 0.67229(8) 0.05475(17)
C5B C -0.0214(2) 0.61239(9) 0.10462(17)
H2B H -0.14700 0.60010 0.06310
C6B C 0.08322(18) 0.56961(7) 0.21365(15)
C7B C 0.5428(2) 0.66961(8) 0.28984(19)
H3B H 0.57680 0.70910 0.23210
H4B H 0.55310 0.68240 0.39760
H5B H 0.62750 0.63110 0.28110
C8B C -0.0659(3) 0.71765(12) -0.0638(3)
H6B H 0.01630 0.74710 -0.11200
H7B H -0.14180 0.68880 -0.14170
H8B H -0.14840 0.74650 -0.01440
C9B C -0.0031(2) 0.50474(9) 0.2624(2)
H9B H 0.04200 0.46500 0.21160
H10B H 0.03230 0.49940 0.37350
H11B H -0.13970 0.50760 0.23400
C10B C 0.38572(16) 0.54265(6) 0.39037(13)
C11B C 0.40961(17) 0.55837(6) 0.54701(13)
C12B C 0.32003(19) 0.61667(7) 0.60030(15)
H12B H 0.24120 0.64500 0.52880
C13B C 0.3457(2) 0.63232(7) 0.75180(16)
H13B H 0.28600 0.67160 0.78480
C14B C 0.4608(2) 0.59035(7) 0.86054(15)
H14B H 0.47820 0.60180 0.96600
C15B C 0.54676(19) 0.53380(7) 0.81508(14)
H15B H 0.62250 0.50590 0.88960
C16B C 0.52513(17) 0.51554(6) 0.65722(13)
loop_
_geom_bond_atom_site_label_1
_geom_bond_atom_site_label_2
_geom_bond_distance
_geom_bond_site_symmetry_1
_geom_bond_site_symmetry_2
C1 C2 1.400 1_555 1_555
C2 C3 1.395 1_555 1_555
C3 H1 0.951 1_555 1_555
C4 C3 1.382 1_555 1_555
C5 C4 1.385 1_555 1_555
H2 C5 0.950 1_555 1_555
C6 C1 1.401 1_555 1_555
C7 C2 1.504 1_555 1_555
H3 C7 0.979 1_555 1_555
H4 C7 0.980 1_555 1_555
H5 C7 0.980 1_555 1_555
C8 C4 1.513 1_555 1_555
H6 C8 0.980 1_555 1_555
H7 C8 0.979 1_555 1_555
H8 C8 0.981 1_555 1_555
C9 C6 1.506 1_555 1_555
H9 C9 0.980 1_555 1_555
H10 C9 0.981 1_555 1_555
H11 C9 0.980 1_555 1_555
C10 C1 1.496 1_555 1_555
C11 C10 1.406 1_555 1_555
C12 C11 1.429 1_555 1_555
H12 C12 0.950 1_555 1_555
C13 C12 1.361 1_555 1_555
H13 C13 0.950 1_555 1_555
C14 C13 1.416 1_555 1_555
H14 C14 0.950 1_555 1_555
C15 C14 1.361 1_555 1_555
H15 C15 0.950 1_555 1_555
C16 C11 1.434 1_555 1_555
C1B C2B 1.400 1_555 1_555
C2B C3B 1.395 1_555 1_555
C3B H1B 0.951 1_555 1_555
C4B C3B 1.382 1_555 1_555
C5B C4B 1.385 1_555 1_555
H2B C5B 0.950 1_555 1_555
C6B C1B 1.401 1_555 1_555
C7B C2B 1.504 1_555 1_555
H3B C7B 0.979 1_555 1_555
H4B C7B 0.980 1_555 1_555
H5B C7B 0.980 1_555 1_555
C8B C4B 1.513 1_555 1_555
H6B C8B 0.980 1_555 1_555
H7B C8B 0.979 1_555 1_555
H8B C8B 0.981 1_555 1_555
C9B C6B 1.506 1_555 1_555
H9B C9B 0.980 1_555 1_555
H10B C9B 0.981 1_555 1_555
H11B C9B 0.980 1_555 1_555
C10B C16 1.405 1_555 1_555
C11B C10B 1.406 1_555 1_555
C12B C11B 1.429 1_555 1_555
H12B C12B 0.950 1_555 1_555
C13B C12B 1.361 1_555 1_555
H13B C13B 0.950 1_555 1_555
C14B C13B 1.416 1_555 1_555
H14B C14B 0.950 1_555 1_555
C15B C14B 1.361 1_555 1_555
H15B C15B 0.950 1_555 1_555
C16B C10 1.405 1_555 1_555
C5 C6 1.393 1_555 1_555
C15 C16 1.429 1_555 1_555
C1B C10B 1.496 1_555 1_555
C5B C6B 1.393 1_555 1_555
C11B C16B 1.434 1_555 1_555
C15B C16B 1.429 1_555 1_555
#END
