
#######################################################################
#
#                 Cambridge Crystallographic Data Centre
#                                CCDC
#
#######################################################################
#
# If this CIF has been generated from an entry in the Cambridge
# Structural Database, then it will include bibliographic, chemical,
# crystal, experimental, refinement or atomic coordinate data resulting
# from the CCDC's data processing and validation procedures.
#
#######################################################################

data_CSD_CIF_YIHKOS
_audit_creation_date 2018-06-15
_audit_creation_method CSD-ConQuest-V1
_database_code_CSD YIHKOS
_database_code_depnum_ccdc_archive 'CCDC 1837726'
_chemical_formula_sum 'C40 H26'
_chemical_formula_moiety
;
C40 H26
;
_journal_coden_Cambridge 1336
_journal_volume 20
_journal_year 2018
_journal_page_first 3758
_journal_name_full 'Org.Lett. '
loop_
_publ_author_name
"M.Ackermann"
"J.Freudenberg"
"D.Jansch"
"F.Rominger"
"U.H.F.Bunz"
"K.Mullen"
_chemical_name_systematic
;
9-[([1,1'-biphenyl]-2-yl)(9H-fluoren-9-ylidene)methyl]phenanthrene
;
_cell_volume   1330.835
_exptl_crystal_colour 'colorless'
_exptl_crystal_density_diffrn 1.264
_exptl_crystal_description 'stick'
_diffrn_ambient_temperature 200
#These two values have been output from a single CSD field.
_refine_ls_R_factor_gt 0.0647
_refine_ls_wR_factor_gt 0.0647
_symmetry_cell_setting triclinic
_symmetry_space_group_name_H-M 'P -1'
_symmetry_Int_Tables_number 2
loop_
_symmetry_equiv_pos_site_id
_symmetry_equiv_pos_as_xyz
1 x,y,z
2 -x,-y,-z
_cell_length_a 9.977(2)
_cell_length_b 12.166(3)
_cell_length_c 12.860(3)
_cell_angle_alpha 100.218(6)
_cell_angle_beta 107.912(5)
_cell_angle_gamma 109.437(5)
_cell_formula_units_Z 2
loop_
_atom_type_symbol
_atom_type_radius_bond
C 0.68
H 0.23
loop_
_atom_site_label
_atom_site_type_symbol
_atom_site_fract_x
_atom_site_fract_y
_atom_site_fract_z
C1 C 0.5195(6) 0.7139(5) 0.3064(4)
C2 C 0.5024(6) 0.8055(5) 0.2672(4)
C3 C 0.4427(6) 0.6642(5) 0.3824(4)
C4 C 0.4904(6) 0.7414(5) 0.4934(4)
H1 H 0.55769 0.82542 0.51406
C5 C 0.4416(6) 0.6980(5) 0.5735(5)
H2 H 0.47448 0.75216 0.64827
C6 C 0.3457(6) 0.5769(5) 0.5452(5)
H3 H 0.31620 0.54575 0.60120
C7 C 0.2922(6) 0.5003(5) 0.4346(5)
H4 H 0.22269 0.41709 0.41474
C8 C 0.3373(6) 0.5417(5) 0.3513(4)
C9 C 0.2616(6) 0.4572(5) 0.2314(5)
C10 C 0.2393(6) 0.3344(5) 0.2090(5)
H5 H 0.27787 0.30584 0.27091
C11 C 0.1625(7) 0.2541(5) 0.0988(5)
H6 H 0.14630 0.17047 0.08546
C12 C 0.1083(6) 0.2954(6) 0.0069(5)
H7 H 0.05734 0.24048 -0.06948
C13 C 0.1290(6) 0.4156(5) 0.0270(5)
H8 H 0.09180 0.44414 -0.03531
C14 C 0.2039(5) 0.4951(5) 0.1381(5)
H9 H 0.21623 0.57788 0.15117
C15 C 0.6274(6) 0.6599(5) 0.2886(4)
C16 C 0.7849(6) 0.7065(5) 0.3758(4)
C17 C 0.8439(6) 0.8120(5) 0.4708(5)
H10 H 0.78096 0.85451 0.47732
C18 C 0.9909(7) 0.8550(5) 0.5545(5)
H11 H 1.03008 0.92714 0.61740
C19 C 1.0805(7) 0.7901(6) 0.5449(5)
H12 H 1.18047 0.81678 0.60337
C20 C 1.0274(6) 0.6893(5) 0.4532(4)
H13 H 1.09182 0.64771 0.44853
C21 C 0.8801(6) 0.6452(5) 0.3654(4)
C22 C 0.8229(6) 0.5382(5) 0.2661(4)
C23 C 0.9086(6) 0.4710(5) 0.2494(5)
H14 H 1.01008 0.49605 0.30505
C24 C 0.8504(7) 0.3704(5) 0.1552(5)
H15 H 0.91081 0.32598 0.14693
C25 C 0.7027(6) 0.3329(5) 0.0715(5)
H16 H 0.66321 0.26387 0.00541
C26 C 0.6140(6) 0.3962(5) 0.0848(4)
H17 H 0.51259 0.36971 0.02828
C27 C 0.6727(6) 0.4994(5) 0.1812(4)
C28 C 0.5793(6) 0.5629(5) 0.1965(4)
H18 H 0.47848 0.53509 0.13888
C29 C 0.5947(6) 0.8750(5) 0.2094(4)
C30 C 0.5443(6) 0.9663(5) 0.1854(4)
C31 C 0.6138(6) 1.0500(5) 0.1364(4)
H19 H 0.58042 1.11250 0.12232
C32 C 0.7337(7) 1.0387(5) 0.1088(4)
H20 H 0.78318 1.09446 0.07529
C33 C 0.7823(6) 0.9478(5) 0.1293(4)
H21 H 0.86368 0.94117 0.10877
C34 C 0.7134(6) 0.8663(5) 0.1794(4)
H22 H 0.74783 0.80420 0.19329
C35 C 0.3899(6) 0.8620(5) 0.2716(4)
C36 C 0.4150(6) 0.9556(5) 0.2205(4)
C37 C 0.3227(6) 1.0199(5) 0.2101(4)
H23 H 0.33800 1.08183 0.17369
C38 C 0.2081(6) 0.9939(5) 0.2527(5)
H24 H 0.14703 1.03972 0.24837
C39 C 0.1834(6) 0.9005(5) 0.3018(5)
H25 H 0.10346 0.88215 0.32981
C40 C 0.2716(6) 0.8332(5) 0.3112(4)
H26 H 0.25186 0.76856 0.34406
loop_
_geom_bond_atom_site_label_1
_geom_bond_atom_site_label_2
_geom_bond_distance
_geom_bond_site_symmetry_1
_geom_bond_site_symmetry_2
C1 C2 1.341 1_555 1_555
C2 C29 1.497 1_555 1_555
C3 C1 1.507 1_555 1_555
C4 C3 1.398 1_555 1_555
H1 C4 0.950 1_555 1_555
C5 C4 1.381 1_555 1_555
H2 C5 0.951 1_555 1_555
C6 C5 1.370 1_555 1_555
H3 C6 0.950 1_555 1_555
C7 C6 1.381 1_555 1_555
H4 C7 0.950 1_555 1_555
C8 C3 1.405 1_555 1_555
C9 C8 1.486 1_555 1_555
C10 C9 1.397 1_555 1_555
H5 C10 0.949 1_555 1_555
C11 C10 1.376 1_555 1_555
H6 C11 0.950 1_555 1_555
C12 C11 1.393 1_555 1_555
H7 C12 0.951 1_555 1_555
C13 C12 1.371 1_555 1_555
H8 C13 0.950 1_555 1_555
C14 C9 1.390 1_555 1_555
H9 C14 0.950 1_555 1_555
C15 C1 1.487 1_555 1_555
C16 C15 1.465 1_555 1_555
C17 C16 1.409 1_555 1_555
H10 C17 0.950 1_555 1_555
C18 C17 1.379 1_555 1_555
H11 C18 0.950 1_555 1_555
C19 C18 1.393 1_555 1_555
H12 C19 0.950 1_555 1_555
C20 C19 1.358 1_555 1_555
H13 C20 0.950 1_555 1_555
C21 C16 1.411 1_555 1_555
C22 C21 1.456 1_555 1_555
C23 C22 1.401 1_555 1_555
H14 C23 0.950 1_555 1_555
C24 C23 1.368 1_555 1_555
H15 C24 0.950 1_555 1_555
C25 C24 1.393 1_555 1_555
H16 C25 0.950 1_555 1_555
C26 C25 1.380 1_555 1_555
H17 C26 0.950 1_555 1_555
C27 C22 1.414 1_555 1_555
C28 C15 1.343 1_555 1_555
H18 C28 0.949 1_555 1_555
C29 C30 1.407 1_555 1_555
C30 C31 1.393 1_555 1_555
C31 H19 0.950 1_555 1_555
C32 C31 1.389 1_555 1_555
H20 C32 0.949 1_555 1_555
C33 C32 1.382 1_555 1_555
H21 C33 0.950 1_555 1_555
C34 C29 1.383 1_555 1_555
H22 C34 0.951 1_555 1_555
C35 C2 1.508 1_555 1_555
C36 C30 1.467 1_555 1_555
C37 C36 1.385 1_555 1_555
H23 C37 0.950 1_555 1_555
C38 C37 1.383 1_555 1_555
H24 C38 0.949 1_555 1_555
C39 C38 1.384 1_555 1_555
H25 C39 0.950 1_555 1_555
C40 C35 1.390 1_555 1_555
H26 C40 0.950 1_555 1_555
C7 C8 1.393 1_555 1_555
C13 C14 1.381 1_555 1_555
C20 C21 1.401 1_555 1_555
C26 C27 1.403 1_555 1_555
C27 C28 1.429 1_555 1_555
C33 C34 1.384 1_555 1_555
C35 C36 1.403 1_555 1_555
C39 C40 1.382 1_555 1_555
#END
