
#######################################################################
#
#                 Cambridge Crystallographic Data Centre
#                                CCDC
#
#######################################################################
#
# If this CIF has been generated from an entry in the Cambridge
# Structural Database, then it will include bibliographic, chemical,
# crystal, experimental, refinement or atomic coordinate data resulting
# from the CCDC's data processing and validation procedures.
#
#######################################################################

data_CSD_CIF_YIHKAE
_audit_creation_date 2018-06-15
_audit_creation_method CSD-ConQuest-V1
_database_code_CSD YIHKAE
_database_code_depnum_ccdc_archive 'CCDC 1563153'
_chemical_formula_sum 'C52 H34'
_chemical_formula_moiety
;
C52 H34
;
_journal_coden_Cambridge 1336
_journal_volume 20
_journal_year 2018
_journal_page_first 3758
_journal_name_full 'Org.Lett. '
loop_
_publ_author_name
"M.Ackermann"
"J.Freudenberg"
"D.Jansch"
"F.Rominger"
"U.H.F.Bunz"
"K.Mullen"
_chemical_name_systematic
;
4,5,6-tris([1,1'-biphenyl]-2-yl)acephenanthrylene
;
_cell_volume   3555.090
_exptl_crystal_colour 'yellow'
_exptl_crystal_density_diffrn 1.231
_diffrn_ambient_temperature 200
#These two values have been output from a single CSD field.
_refine_ls_R_factor_gt 0.0597
_refine_ls_wR_factor_gt 0.0597
_symmetry_cell_setting monoclinic
_symmetry_space_group_name_H-M 'P 21/c'
_symmetry_Int_Tables_number 14
loop_
_symmetry_equiv_pos_site_id
_symmetry_equiv_pos_as_xyz
1 x,y,z
2 -x,1/2+y,1/2-z
3 -x,-y,-z
4 x,-1/2-y,-1/2+z
_cell_length_a 18.3142(9)
_cell_length_b 9.4136(5)
_cell_length_c 20.8067(9)
_cell_angle_alpha 90
_cell_angle_beta 97.6634(13)
_cell_angle_gamma 90
_cell_formula_units_Z 4
loop_
_atom_type_symbol
_atom_type_radius_bond
C 0.68
H 0.23
loop_
_atom_site_label
_atom_site_type_symbol
_atom_site_fract_x
_atom_site_fract_y
_atom_site_fract_z
C1 C 0.74228(13) 0.7213(3) 0.37067(12)
C2 C 0.72907(13) 0.6164(2) 0.41330(12)
C3 C 0.77022(13) 0.6506(2) 0.47773(12)
C4 C 0.77945(13) 0.5859(2) 0.53758(12)
C5 C 0.71412(13) 0.7335(3) 0.30048(12)
C6 C 0.72525(14) 0.6273(3) 0.25551(12)
C7 C 0.69387(16) 0.6468(3) 0.19090(13)
H1 H 0.69938 0.57439 0.16010
C8 C 0.65532(16) 0.7679(3) 0.17086(15)
H2 H 0.63464 0.77840 0.12676
C9 C 0.64677(16) 0.8742(3) 0.21512(15)
H3 H 0.62109 0.95895 0.20150
C10 C 0.67583(15) 0.8561(3) 0.27909(14)
H4 H 0.66961 0.92908 0.30941
C11 C 0.67971(14) 0.4926(2) 0.39795(11)
C12 C 0.60401(15) 0.5089(3) 0.37766(13)
C13 C 0.56217(17) 0.3866(3) 0.36449(15)
H5 H 0.51078 0.39564 0.35079
C14 C 0.5926(2) 0.2534(3) 0.37060(16)
H6 H 0.56230 0.17209 0.36117
C15 C 0.66655(18) 0.2373(3) 0.39029(13)
H7 H 0.68768 0.14507 0.39515
C16 C 0.71003(16) 0.3563(3) 0.40299(12)
H8 H 0.76154 0.34538 0.41538
C17 C 0.80724(13) 0.7817(2) 0.46983(12)
C18 C 0.85483(14) 0.8507(2) 0.51672(12)
C19 C 0.88690(15) 0.9768(3) 0.49745(13)
H9 H 0.92003 1.02877 0.52775
C20 C 0.87036(15) 1.0251(3) 0.43482(13)
H10 H 0.89224 1.11114 0.42311
C21 C 0.82291(14) 0.9533(2) 0.38772(13)
H11 H 0.81282 0.98899 0.34475
C22 C 0.79108(13) 0.8290(2) 0.40534(12)
C23 C 0.74176(14) 0.4495(3) 0.55010(11)
C24 C 0.78052(14) 0.3220(3) 0.56377(12)
C25 C 0.74080(15) 0.1992(3) 0.57245(13)
H12 H 0.76635 0.11205 0.58113
C26 C 0.66548(17) 0.2015(3) 0.56874(14)
H13 H 0.63957 0.11598 0.57455
C27 C 0.62711(16) 0.3263(3) 0.55668(13)
H14 H 0.57500 0.32786 0.55478
C28 C 0.66535(14) 0.4497(3) 0.54737(12)
H15 H 0.63902 0.53613 0.53896
C29 C 0.77215(16) 0.5002(3) 0.27172(12)
C30 C 0.74826(18) 0.3656(3) 0.24982(13)
H16 H 0.70040 0.35456 0.22640
C31 C 0.7933(2) 0.2485(3) 0.26181(14)
H17 H 0.77633 0.15739 0.24693
C32 C 0.8631(2) 0.2637(3) 0.29543(15)
H18 H 0.89437 0.18325 0.30325
C33 C 0.88734(17) 0.3951(3) 0.31755(14)
H19 H 0.93530 0.40544 0.34085
C34 C 0.84232(16) 0.5117(3) 0.30606(13)
H20 H 0.85956 0.60196 0.32191
C35 C 0.56685(15) 0.6497(3) 0.37161(14)
C36 C 0.57847(15) 0.7540(3) 0.41908(15)
H21 H 0.61279 0.73754 0.45676
C37 C 0.54071(17) 0.8818(3) 0.41225(18)
H22 H 0.54907 0.95209 0.44517
C38 C 0.49086(18) 0.9069(4) 0.3575(2)
H23 H 0.46499 0.99456 0.35277
C39 C 0.47880(18) 0.8062(4) 0.31030(18)
H24 H 0.44450 0.82394 0.27273
C40 C 0.51614(16) 0.6784(3) 0.31669(15)
H25 H 0.50727 0.60905 0.28338
C41 C 0.86572(14) 0.7836(3) 0.58045(12)
C42 C 0.82754(13) 0.6558(2) 0.59016(12)
C43 C 0.83669(15) 0.5971(3) 0.65276(12)
H26 H 0.81066 0.51288 0.66058
C44 C 0.88231(16) 0.6582(3) 0.70307(13)
H27 H 0.88748 0.61623 0.74495
C45 C 0.92092(16) 0.7816(3) 0.69261(13)
H28 H 0.95310 0.82289 0.72716
C46 C 0.91253(15) 0.8433(3) 0.63264(13)
H29 H 0.93873 0.92806 0.62605
C47 C 0.86192(15) 0.3122(2) 0.56901(13)
C48 C 0.90123(15) 0.3575(3) 0.52027(14)
H30 H 0.87602 0.40241 0.48283
C49 C 0.97656(16) 0.3383(3) 0.52547(16)
H31 H 1.00246 0.36678 0.49099
C50 C 1.01418(16) 0.2780(3) 0.58028(16)
H32 H 1.06610 0.26644 0.58387
C51 C 0.97691(17) 0.2344(3) 0.62999(15)
H33 H 1.00294 0.19375 0.66812
C52 C 0.90086(16) 0.2504(3) 0.62396(13)
H34 H 0.87502 0.21858 0.65793
loop_
_geom_bond_atom_site_label_1
_geom_bond_atom_site_label_2
_geom_bond_distance
_geom_bond_site_symmetry_1
_geom_bond_site_symmetry_2
C1 C2 1.370 1_555 1_555
C2 C3 1.483 1_555 1_555
C3 C4 1.376 1_555 1_555
C4 C23 1.497 1_555 1_555
C5 C1 1.487 1_555 1_555
C6 C5 1.403 1_555 1_555
C7 C6 1.402 1_555 1_555
H1 C7 0.950 1_555 1_555
C8 C7 1.376 1_555 1_555
H2 C8 0.950 1_555 1_555
C9 C8 1.383 1_555 1_555
H3 C9 0.950 1_555 1_555
C10 C5 1.392 1_555 1_555
H4 C10 0.950 1_555 1_555
C11 C2 1.483 1_555 1_555
C12 C11 1.403 1_555 1_555
C13 C12 1.390 1_555 1_555
H5 C13 0.950 1_555 1_555
C14 C13 1.371 1_555 1_555
H6 C14 0.950 1_555 1_555
C15 C14 1.370 1_555 1_555
H7 C15 0.950 1_555 1_555
C16 C11 1.396 1_555 1_555
H8 C16 0.950 1_555 1_555
C17 C3 1.428 1_555 1_555
C18 C17 1.381 1_555 1_555
C19 C18 1.406 1_555 1_555
H9 C19 0.950 1_555 1_555
C20 C19 1.375 1_555 1_555
H10 C20 0.950 1_555 1_555
C21 C20 1.395 1_555 1_555
H11 C21 0.950 1_555 1_555
C22 C1 1.475 1_555 1_555
C23 C24 1.404 1_555 1_555
C24 C25 1.390 1_555 1_555
C25 H12 0.950 1_555 1_555
C26 C25 1.371 1_555 1_555
H13 C26 0.950 1_555 1_555
C27 C26 1.375 1_555 1_555
H14 C27 0.950 1_555 1_555
C28 C23 1.393 1_555 1_555
H15 C28 0.950 1_555 1_555
C29 C6 1.485 1_555 1_555
C30 C29 1.397 1_555 1_555
H16 C30 0.950 1_555 1_555
C31 C30 1.379 1_555 1_555
H17 C31 0.950 1_555 1_555
C32 C31 1.380 1_555 1_555
H18 C32 0.950 1_555 1_555
C33 C32 1.373 1_555 1_555
H19 C33 0.950 1_555 1_555
C34 C29 1.389 1_555 1_555
H20 C34 0.950 1_555 1_555
C35 C12 1.488 1_555 1_555
C36 C35 1.389 1_555 1_555
H21 C36 0.950 1_555 1_555
C37 C36 1.385 1_555 1_555
H22 C37 0.950 1_555 1_555
C38 C37 1.382 1_555 1_555
H23 C38 0.950 1_555 1_555
C39 C38 1.362 1_555 1_555
H24 C39 0.950 1_555 1_555
C40 C35 1.399 1_555 1_555
H25 C40 0.950 1_555 1_555
C41 C18 1.458 1_555 1_555
C42 C4 1.466 1_555 1_555
C43 C42 1.404 1_555 1_555
H26 C43 0.950 1_555 1_555
C44 C43 1.375 1_555 1_555
H27 C44 0.950 1_555 1_555
C45 C44 1.392 1_555 1_555
H28 C45 0.950 1_555 1_555
C46 C41 1.408 1_555 1_555
H29 C46 0.950 1_555 1_555
C47 C24 1.483 1_555 1_555
C48 C47 1.387 1_555 1_555
H30 C48 0.950 1_555 1_555
C49 C48 1.381 1_555 1_555
H31 C49 0.950 1_555 1_555
C50 C49 1.374 1_555 1_555
H32 C50 0.950 1_555 1_555
C51 C50 1.376 1_555 1_555
H33 C51 0.950 1_555 1_555
C52 C47 1.392 1_555 1_555
H34 C52 0.950 1_555 1_555
C9 C10 1.377 1_555 1_555
C15 C16 1.379 1_555 1_555
C17 C22 1.407 1_555 1_555
C21 C22 1.379 1_555 1_555
C27 C28 1.383 1_555 1_555
C33 C34 1.374 1_555 1_555
C39 C40 1.381 1_555 1_555
C41 C42 1.419 1_555 1_555
C45 C46 1.366 1_555 1_555
C51 C52 1.390 1_555 1_555
#END
