
#######################################################################
#
#                 Cambridge Crystallographic Data Centre
#                                CCDC
#
#######################################################################
#
# If this CIF has been generated from an entry in the Cambridge
# Structural Database, then it will include bibliographic, chemical,
# crystal, experimental, refinement or atomic coordinate data resulting
# from the CCDC's data processing and validation procedures.
#
#######################################################################

data_CSD_CIF_YINYUP
_audit_creation_date 1995-06-18
_audit_creation_method CSD-ConQuest-V1
_database_code_CSD YINYUP
_database_code_depnum_ccdc_fiz 'CSD 400068'
_chemical_formula_sum 'C20 H18'
_chemical_formula_moiety
;
C20 H18
;
_journal_coden_Cambridge 24
_journal_volume 34
_journal_year 1993
_journal_page_first 3397
_journal_name_full 'Tetrahedron Lett. '
loop_
_publ_author_name
"R.Thiergardt"
"M.Keller"
"M.Wollenweber"
"H.Prinzbach"
_chemical_name_systematic
;
9,10-Naphthotetracyclo(6.2.1.1^3,6^.0^2,7^)dodec-4-ene
;
_chemical_melting_point 385.15
_cell_volume    689.015
_exptl_crystal_colour 'colorless'
_diffrn_ambient_temperature ?
_diffrn_special_details
;
The study was carried out at room temperature,in the range 283-303K

;
_symmetry_cell_setting monoclinic
_symmetry_space_group_name_H-M 'P 21'
_symmetry_Int_Tables_number 4
loop_
_symmetry_equiv_pos_site_id
_symmetry_equiv_pos_as_xyz
1 x,y,z
2 -x,1/2+y,-z
_cell_length_a 6.102(3)
_cell_length_b 17.379(4)
_cell_length_c 6.960(3)
_cell_angle_alpha 90
_cell_angle_beta 111.01
_cell_angle_gamma 90
_cell_formula_units_Z 2
loop_
_atom_type_symbol
_atom_type_radius_bond
C 0.68
H 0.23
loop_
_atom_site_label
_atom_site_type_symbol
_atom_site_fract_x
_atom_site_fract_y
_atom_site_fract_z
C1 C 0.7453(4) 0.4231(1) 0.4353(4)
C2 C 0.5318(4) 0.3801(2) 0.2830(3)
C3 C 0.5174(4) 0.2929(2) 0.2281(3)
C4 C 0.5953(4) 0.24400 0.4200(3)
C5 C 0.4246(4) 0.2539(1) 0.5138(3)
C6 C 0.2426(4) 0.3071(2) 0.3743(4)
C7 C 0.3407(4) 0.3899(2) 0.3806(3)
C8 C 0.4733(5) 0.4369(2) 0.5792(4)
C9 C 0.6716(5) 0.3906(2) 0.7237(4)
C10 C 0.8314(4) 0.3827(2) 0.6400(4)
C11 C 0.6115(5) 0.4904(2) 0.4901(4)
C12 C 0.2502(5) 0.2817(2) 0.1645(4)
C13 C 0.4444(4) 0.2171(1) 0.6897(3)
C14 C 0.6353(4) 0.1662(1) 0.7820(3)
C15 C 0.6625(5) 0.1244(2) 0.9646(4)
C16 C 0.8436(5) 0.0735(2) 1.0462(4)
C17 C 1.0060(5) 0.0610(2) 0.9498(4)
C18 C 0.9862(4) 0.1007(1) 0.7738(4)
C19 C 0.8032(4) 0.1540(1) 0.6862(3)
C20 C 0.7777(4) 0.1951(1) 0.5021(4)
H1 H 0.86800 0.43200 0.38300
H2 H 0.52400 0.40200 0.15500
H3 H 0.60000 0.28200 0.13900
H4 H 0.10200 0.30700 0.40400
H5 H 0.20000 0.42000 0.32300
H6 H 0.37300 0.45700 0.64600
H7 H 0.68100 0.37100 0.85300
H8 H 0.97700 0.35700 0.69900
H9 H 0.51500 0.51900 0.37300
H10 H 0.71100 0.52600 0.58800
H11 H 0.16300 0.31500 0.05500
H12 H 0.20300 0.23100 0.13200
H13 H 0.33100 0.22600 0.75200
H14 H 0.55400 0.13300 1.03300
H15 H 0.85700 0.04700 1.16800
H16 H 1.13000 0.02600 1.00700
H17 H 1.09800 0.09300 0.71000
H18 H 0.88800 0.18800 0.43600
loop_
_geom_bond_atom_site_label_1
_geom_bond_atom_site_label_2
_geom_bond_distance
_geom_bond_site_symmetry_1
_geom_bond_site_symmetry_2
C1 C2 1.546 1_555 1_555
C2 C3 1.558 1_555 1_555
C3 C4 1.509 1_555 1_555
C4 C5 1.424 1_555 1_555
C5 C6 1.503 1_555 1_555
C6 C7 1.553 1_555 1_555
C7 C2 1.555 1_555 1_555
C8 C7 1.559 1_555 1_555
C9 C8 1.500 1_555 1_555
C10 C1 1.504 1_555 1_555
C11 C1 1.550 1_555 1_555
C12 C3 1.541 1_555 1_555
C13 C5 1.348 1_555 1_555
C14 C13 1.420 1_555 1_555
C15 C14 1.421 1_555 1_555
C16 C15 1.370 1_555 1_555
C17 C16 1.399 1_555 1_555
C18 C17 1.373 1_555 1_555
C19 C14 1.424 1_555 1_555
C20 C4 1.353 1_555 1_555
H1 C1 0.955 1_555 1_555
H2 C2 0.954 1_555 1_555
H3 C3 0.948 1_555 1_555
H4 C6 0.952 1_555 1_555
H5 C7 0.962 1_555 1_555
H6 C8 0.957 1_555 1_555
H7 C9 0.945 1_555 1_555
H8 C10 0.946 1_555 1_555
H9 C11 0.956 1_555 1_555
H10 C11 0.959 1_555 1_555
H11 C12 0.953 1_555 1_555
H12 C12 0.929 1_555 1_555
H13 C13 0.952 1_555 1_555
H14 C15 0.956 1_555 1_555
H15 C16 0.942 1_555 1_555
H16 C17 0.941 1_555 1_555
H17 C18 0.947 1_555 1_555
H18 C20 0.950 1_555 1_555
C6 C12 1.542 1_555 1_555
C8 C11 1.528 1_555 1_555
C9 C10 1.310 1_555 1_555
C18 C19 1.410 1_555 1_555
C19 C20 1.426 1_555 1_555
#END
