
#######################################################################
#
#                 Cambridge Crystallographic Data Centre
#                                CCDC
#
#######################################################################
#
# If this CIF has been generated from an entry in the Cambridge
# Structural Database, then it will include bibliographic, chemical,
# crystal, experimental, refinement or atomic coordinate data resulting
# from the CCDC's data processing and validation procedures.
#
#######################################################################

data_CSD_CIF_YITJAN
_audit_creation_date 2008-05-23
_audit_creation_method CSD-ConQuest-V1
_database_code_CSD YITJAN
_database_code_depnum_ccdc_archive 'CCDC 656614'
_chemical_formula_sum 'C24 H16'
_chemical_formula_moiety
;
C24 H16
;
_journal_coden_Cambridge 1291
_journal_year 2008
_journal_page_first 485
_journal_name_full 'Eur.J.Org.Chem. '
loop_
_publ_author_name
"Chun-Jung Kuo"
"Shu-Jin Cheng"
"Shu-Ting Chang"
"Charng-Hsing Liu"
_chemical_name_systematic
;
5-Phenyltetraphene
;
_chemical_melting_point 406.15
_cell_volume   3175.176
_exptl_crystal_colour 'white'
_exptl_crystal_density_diffrn 1.273
_exptl_special_details
;
Melting point range 406.15-408.15K

;
_exptl_crystal_description 'needle'
_diffrn_ambient_temperature ?
_diffrn_special_details
;
The study was carried out at room temperature,in the range 283-303K

;
#These two values have been output from a single CSD field.
_refine_ls_R_factor_gt 0.0435
_refine_ls_wR_factor_gt 0.0435
_symmetry_cell_setting monoclinic
_symmetry_space_group_name_H-M 'P 21/c'
_symmetry_Int_Tables_number 14
loop_
_symmetry_equiv_pos_site_id
_symmetry_equiv_pos_as_xyz
1 x,y,z
2 -x,1/2+y,1/2-z
3 -x,-y,-z
4 x,-1/2-y,-1/2+z
_cell_length_a 13.615(3)
_cell_length_b 30.332(8)
_cell_length_c 7.689(2)
_cell_angle_alpha 90
_cell_angle_beta 90.561(5)
_cell_angle_gamma 90
_cell_formula_units_Z 8
loop_
_atom_type_symbol
_atom_type_radius_bond
C 0.68
H 0.23
loop_
_atom_site_label
_atom_site_type_symbol
_atom_site_fract_x
_atom_site_fract_y
_atom_site_fract_z
C1 C 0.47362(16) 0.16910(6) 1.1512(3)
H1 H 0.53780 0.16020 1.17440
C2 C 0.42470(17) 0.19515(7) 1.2715(3)
H2 H 0.45600 0.20350 1.37430
C3 C 0.32974(17) 0.20846(7) 1.2378(3)
H3 H 0.29720 0.22620 1.31720
C4 C 0.28275(16) 0.19547(7) 1.0862(3)
H4 H 0.21830 0.20420 1.06420
C5 C 0.33201(16) 0.16936(7) 0.9667(3)
H5 H 0.30010 0.16060 0.86500
C6 C 0.42812(16) 0.15621(7) 0.9972(3)
C7 C 0.48400(16) 0.12941(7) 0.8678(3)
C8 C 0.47856(16) 0.08508(7) 0.8658(3)
H6 H 0.43500 0.07120 0.94050
C9 C 0.53737(16) 0.05831(6) 0.7527(3)
C10 C 0.53008(16) 0.01261(6) 0.7534(3)
H7 H 0.48400 -0.00070 0.82500
C11 C 0.58982(16) -0.01418(7) 0.6500(2)
C12 C 0.58404(16) -0.06087(7) 0.6487(3)
H8 H 0.53750 -0.07490 0.71680
C13 C 0.64573(16) -0.08543(7) 0.5489(3)
H9 H 0.64120 -0.11600 0.55030
C14 C 0.71654(17) -0.06466(7) 0.4433(3)
H10 H 0.75790 -0.08160 0.37490
C15 C 0.72423(16) -0.01986(7) 0.4417(3)
H11 H 0.77170 -0.00660 0.37310
C16 C 0.66111(16) 0.00701(7) 0.5427(3)
C17 C 0.66710(16) 0.05316(6) 0.5396(3)
H12 H 0.71330 0.06660 0.46860
C18 C 0.60609(16) 0.07937(6) 0.6394(2)
C19 C 0.60713(15) 0.12770(6) 0.6317(2)
C20 C 0.66617(15) 0.15112(7) 0.5137(3)
H13 H 0.70640 0.13560 0.43820
C21 C 0.66554(15) 0.19648(7) 0.5078(3)
H14 H 0.70530 0.21120 0.42910
C22 C 0.60587(15) 0.22041(7) 0.6190(2)
H15 H 0.60580 0.25100 0.61470
C23 C 0.54705(15) 0.19874(6) 0.7352(3)
H16 H 0.50710 0.21490 0.80890
C24 C 0.54635(15) 0.15235(6) 0.7447(3)
C25 C 0.95847(16) 0.17371(6) 0.6279(3)
H17 H 0.89230 0.16640 0.63540
C26 C 0.99858(17) 0.20358(7) 0.7450(3)
H18 H 0.95970 0.21600 0.83080
C27 C 1.09676(18) 0.21484(7) 0.7335(3)
H19 H 1.12370 0.23540 0.80980
C28 C 1.15471(17) 0.19545(7) 0.6085(3)
H20 H 1.22090 0.20270 0.60190
C29 C 1.11465(16) 0.16516(7) 0.4928(3)
H21 H 1.15460 0.15200 0.41020
C30 C 1.01559(16) 0.15431(7) 0.4987(3)
C31 C 0.96988(15) 0.12332(7) 0.3711(3)
C32 C 0.99304(16) 0.08014(7) 0.3699(3)
H22 H 1.04130 0.07000 0.44640
C33 C 0.94593(15) 0.04897(6) 0.2548(2)
C34 C 0.97231(16) 0.00475(6) 0.2563(3)
H23 H 1.02270 -0.00450 0.33030
C35 C 0.92537(16) -0.02646(6) 0.1498(2)
C36 C 0.95077(16) -0.07193(6) 0.1498(3)
H24 H 1.00130 -0.08190 0.22200
C37 C 0.90208(16) -0.10106(7) 0.0456(3)
H25 H 0.91920 -0.13070 0.04770
C38 C 0.82523(16) -0.08639(7) -0.0662(3)
H26 H 0.79220 -0.10650 -0.13710
C39 C 0.79977(16) -0.04324(7) -0.0702(3)
H27 H 0.74980 -0.03400 -0.14500
C40 C 0.84780(16) -0.01190(7) 0.0376(3)
C41 C 0.82252(15) 0.03299(6) 0.0350(2)
H28 H 0.77250 0.04230 -0.03960
C42 C 0.86935(16) 0.06394(6) 0.1392(3)
C43 C 0.84861(15) 0.11108(7) 0.1321(3)
C44 C 0.78154(16) 0.12924(7) 0.0106(3)
H29 H 0.74650 0.11050 -0.06290
C45 C 0.76680(16) 0.17393(7) -0.0016(3)
H30 H 0.72220 0.18510 -0.08280
C46 C 0.81850(15) 0.20262(7) 0.1072(3)
H31 H 0.80930 0.23290 0.09750
C47 C 0.88305(15) 0.18604(7) 0.2287(3)
H32 H 0.91700 0.20530 0.30170
C48 C 0.89860(15) 0.14041(7) 0.2446(3)
loop_
_geom_bond_atom_site_label_1
_geom_bond_atom_site_label_2
_geom_bond_distance
_geom_bond_site_symmetry_1
_geom_bond_site_symmetry_2
C1 H1 0.930 1_555 1_555
C2 C1 1.391 1_555 1_555
H2 C2 0.929 1_555 1_555
C3 C2 1.377 1_555 1_555
H3 C3 0.929 1_555 1_555
C4 C3 1.382 1_555 1_555
H4 C4 0.930 1_555 1_555
C5 C4 1.390 1_555 1_555
H5 C5 0.930 1_555 1_555
C6 C1 1.387 1_555 1_555
C7 C6 1.498 1_555 1_555
C8 C7 1.347 1_555 1_555
H6 C8 0.930 1_555 1_555
C9 C8 1.439 1_555 1_555
C10 C9 1.390 1_555 1_555
H7 C10 0.931 1_555 1_555
C11 C10 1.402 1_555 1_555
C12 C11 1.418 1_555 1_555
H8 C12 0.929 1_555 1_555
C13 C12 1.365 1_555 1_555
H9 C13 0.929 1_555 1_555
C14 C13 1.415 1_555 1_555
H10 C14 0.929 1_555 1_555
C15 C14 1.363 1_555 1_555
H11 C15 0.930 1_555 1_555
C16 C11 1.432 1_555 1_555
C17 C16 1.402 1_555 1_555
H12 C17 0.931 1_555 1_555
C18 C9 1.435 1_555 1_555
C19 C18 1.467 1_555 1_555
C20 C19 1.410 1_555 1_555
H13 C20 0.930 1_555 1_555
C21 C20 1.377 1_555 1_555
H14 C21 0.930 1_555 1_555
C22 C21 1.390 1_555 1_555
H15 C22 0.928 1_555 1_555
C23 C22 1.373 1_555 1_555
H16 C23 0.929 1_555 1_555
C24 C7 1.455 1_555 1_555
C25 H17 0.930 1_555 1_555
C26 C25 1.386 1_555 1_555
H18 C26 0.930 1_555 1_555
C27 C26 1.383 1_555 1_555
H19 C27 0.929 1_555 1_555
C28 C27 1.381 1_555 1_555
H20 C28 0.929 1_555 1_555
C29 C28 1.387 1_555 1_555
H21 C29 0.930 1_555 1_555
C30 C25 1.398 1_555 1_555
C31 C30 1.490 1_555 1_555
C32 C31 1.347 1_555 1_555
H22 C32 0.930 1_555 1_555
C33 C32 1.441 1_555 1_555
C34 C33 1.389 1_555 1_555
H23 C34 0.930 1_555 1_555
C35 C34 1.402 1_555 1_555
C36 C35 1.422 1_555 1_555
H24 C36 0.930 1_555 1_555
C37 C36 1.361 1_555 1_555
H25 C37 0.929 1_555 1_555
C38 C37 1.419 1_555 1_555
H26 C38 0.931 1_555 1_555
C39 C38 1.354 1_555 1_555
H27 C39 0.930 1_555 1_555
C40 C35 1.427 1_555 1_555
C41 C40 1.405 1_555 1_555
H28 C41 0.930 1_555 1_555
C42 C33 1.437 1_555 1_555
C43 C42 1.458 1_555 1_555
C44 C43 1.412 1_555 1_555
H29 C44 0.930 1_555 1_555
C45 C44 1.373 1_555 1_555
H30 C45 0.931 1_555 1_555
C46 C45 1.393 1_555 1_555
H31 C46 0.930 1_555 1_555
C47 C46 1.372 1_555 1_555
H32 C47 0.930 1_555 1_555
C48 C31 1.462 1_555 1_555
C5 C6 1.386 1_555 1_555
C15 C16 1.421 1_555 1_555
C17 C18 1.387 1_555 1_555
C19 C24 1.419 1_555 1_555
C23 C24 1.409 1_555 1_555
C29 C30 1.389 1_555 1_555
C39 C40 1.417 1_555 1_555
C41 C42 1.386 1_555 1_555
C43 C48 1.411 1_555 1_555
C47 C48 1.405 1_555 1_555
#END
