
#######################################################################
#
#                 Cambridge Crystallographic Data Centre
#                                CCDC
#
#######################################################################
#
# If this CIF has been generated from an entry in the Cambridge
# Structural Database, then it will include bibliographic, chemical,
# crystal, experimental, refinement or atomic coordinate data resulting
# from the CCDC's data processing and validation procedures.
#
#######################################################################

data_CSD_CIF_YONRUP
_audit_creation_date 2009-08-17
_audit_creation_method CSD-ConQuest-V1
_database_code_CSD YONRUP
_database_code_depnum_ccdc_archive 'CCDC 709590'
_chemical_formula_sum 'C18 H14'
_chemical_formula_moiety
;
C18 H14
;
_journal_coden_Cambridge 1390
_journal_volume 3
_journal_year 2009
_journal_page_first 11
_journal_name_full 'The Open Organic Chemistry Journal '
loop_
_publ_author_name
"J.G.D.Chavez"
"S.H.Ortega"
"M.Martinez-Garcia"
_chemical_name_systematic
;
9,10-Divinylanthracene
;
_chemical_melting_point 357.15
_cell_volume   1225.434
_exptl_crystal_colour 'yellow'
_exptl_crystal_density_diffrn 1.248
_exptl_special_details
;
Melting point range 357.15-359.15K

;
_exptl_crystal_description 'prism'
_exptl_crystal_preparation 'dichloromethane'
_diffrn_ambient_temperature 298
#These two values have been output from a single CSD field.
_refine_ls_R_factor_gt 0.0422
_refine_ls_wR_factor_gt 0.0422
_symmetry_cell_setting orthorhombic
_symmetry_space_group_name_H-M 'P b c a'
_symmetry_Int_Tables_number 61
loop_
_symmetry_equiv_pos_site_id
_symmetry_equiv_pos_as_xyz
1 x,y,z
2 1/2-x,-y,1/2+z
3 -x,1/2+y,1/2-z
4 1/2+x,1/2-y,-z
5 -x,-y,-z
6 -1/2+x,y,-1/2-z
7 x,-1/2-y,-1/2+z
8 -1/2-x,-1/2+y,z
_cell_length_a 9.0236(11)
_cell_length_b 8.230(1)
_cell_length_c 16.501(2)
_cell_angle_alpha 90
_cell_angle_beta 90
_cell_angle_gamma 90
_cell_formula_units_Z 4
loop_
_atom_type_symbol
_atom_type_radius_bond
C 0.68
H 0.23
loop_
_atom_site_label
_atom_site_type_symbol
_atom_site_fract_x
_atom_site_fract_y
_atom_site_fract_z
C1 C 0.23014(19) 0.1735(2) 0.42078(12)
H1 H 0.31290 0.20830 0.44950
C2 C 0.2195(2) 0.2092(2) 0.34111(14)
H2 H 0.29370 0.26920 0.31600
C3 C 0.0964(2) 0.1559(3) 0.29606(12)
H3 H 0.09150 0.17810 0.24090
C4 C -0.0146(2) 0.0731(2) 0.33192(12)
H4 H -0.09570 0.04070 0.30110
C5 C -0.01028(19) 0.03391(19) 0.41643(11)
C6 C 0.11771(18) 0.08377(19) 0.46209(12)
C7 C 0.12683(18) 0.04721(19) 0.54521(11)
C8 C 0.2609(2) 0.0910(3) 0.59167(12)
H5 H 0.25260 0.17760 0.62760
C9 C 0.3879(2) 0.0212(3) 0.58732(14)
H6 H 0.40170 -0.06600 0.55230
H7 H 0.46600 0.05780 0.61920
C1D C -0.23014(19) -0.1735(2) 0.57922(12)
H1D H -0.31290 -0.20830 0.55050
C2D C -0.2195(2) -0.2092(2) 0.65889(14)
H2D H -0.29370 -0.26920 0.68400
C3D C -0.0964(2) -0.1559(3) 0.70394(12)
H3D H -0.09150 -0.17810 0.75910
C4D C 0.0146(2) -0.0731(2) 0.66808(12)
H4D H 0.09570 -0.04070 0.69890
C5D C 0.01028(19) -0.03391(19) 0.58357(11)
C6D C -0.11771(18) -0.08377(19) 0.53791(12)
C7D C -0.12683(18) -0.04721(19) 0.45479(11)
C8D C -0.2609(2) -0.0910(3) 0.40833(12)
H5D H -0.25260 -0.17760 0.37240
C9D C -0.3879(2) -0.0212(3) 0.41268(14)
H6D H -0.40170 0.06600 0.44770
H7D H -0.46600 -0.05780 0.38080
loop_
_geom_bond_atom_site_label_1
_geom_bond_atom_site_label_2
_geom_bond_distance
_geom_bond_site_symmetry_1
_geom_bond_site_symmetry_2
C1 H1 0.930 1_555 1_555
C2 C1 1.350 1_555 1_555
H2 C2 0.929 1_555 1_555
C3 C2 1.407 1_555 1_555
H3 C3 0.929 1_555 1_555
C4 C3 1.348 1_555 1_555
H4 C4 0.930 1_555 1_555
C5 C4 1.432 1_555 1_555
C6 C1 1.428 1_555 1_555
C7 C6 1.407 1_555 1_555
C8 C7 1.477 1_555 1_555
H5 C8 0.930 1_555 1_555
C9 C8 1.284 1_555 1_555
H6 C9 0.930 1_555 1_555
H7 C9 0.930 1_555 1_555
C1D H1D 0.930 1_555 1_555
C2D C1D 1.350 1_555 1_555
H2D C2D 0.929 1_555 1_555
C3D C2D 1.407 1_555 1_555
H3D C3D 0.929 1_555 1_555
C4D C3D 1.348 1_555 1_555
H4D C4D 0.930 1_555 1_555
C5D C7 1.397 1_555 1_555
C6D C1D 1.428 1_555 1_555
C7D C5 1.397 1_555 1_555
C8D C7D 1.477 1_555 1_555
H5D C8D 0.930 1_555 1_555
C9D C8D 1.284 1_555 1_555
H6D C9D 0.930 1_555 1_555
H7D C9D 0.930 1_555 1_555
C5 C6 1.439 1_555 1_555
C4D C5D 1.432 1_555 1_555
C5D C6D 1.439 1_555 1_555
C6D C7D 1.407 1_555 1_555
#END
