
#######################################################################
#
#                 Cambridge Crystallographic Data Centre
#                                CCDC
#
#######################################################################
#
# If this CIF has been generated from an entry in the Cambridge
# Structural Database, then it will include bibliographic, chemical,
# crystal, experimental, refinement or atomic coordinate data resulting
# from the CCDC's data processing and validation procedures.
#
#######################################################################

data_CSD_CIF_YOSNUR
_audit_creation_date 2015-02-13
_audit_creation_method CSD-ConQuest-V1
_database_code_CSD YOSNUR
_database_code_depnum_ccdc_archive 'CCDC 1028251'
_chemical_formula_sum 'C27 H36'
_chemical_formula_moiety
;
C27 H36
;
_journal_coden_Cambridge 1220
_journal_volume 21
_journal_year 2015
_journal_page_first 4218
_journal_name_full 'Chem.-Eur.J. '
loop_
_publ_author_name
"C.L.Ricardo"
"Xiaobin Mo"
"J.Adam McCubbin"
"D.G.Hall"
_chemical_name_systematic
;
1-(3,3-Dicyclohexylprop-2-en-1-yl)-4,5-dimethylnaphthalene
;
_cell_volume   1075.507
_exptl_crystal_colour 'colorless'
_exptl_crystal_density_diffrn 1.113
_exptl_crystal_description 'plate'
_exptl_crystal_preparation 'ethyl acetate'
_diffrn_ambient_temperature 173
_diffrn_special_details
;
twin

;
#These two values have been output from a single CSD field.
_refine_ls_R_factor_gt 0.0714
_refine_ls_wR_factor_gt 0.0714
_symmetry_cell_setting triclinic
_symmetry_space_group_name_H-M 'P -1'
_symmetry_Int_Tables_number 2
loop_
_symmetry_equiv_pos_site_id
_symmetry_equiv_pos_as_xyz
1 x,y,z
2 -x,-y,-z
_cell_length_a 7.0036(3)
_cell_length_b 9.7327(6)
_cell_length_c 15.9499(8)
_cell_angle_alpha 93.302(5)
_cell_angle_beta 95.131(4)
_cell_angle_gamma 95.477(4)
_cell_formula_units_Z 2
loop_
_atom_type_symbol
_atom_type_radius_bond
C 0.68
H 0.23
loop_
_atom_site_label
_atom_site_type_symbol
_atom_site_fract_x
_atom_site_fract_y
_atom_site_fract_z
C1 C 0.1076(4) 0.1324(3) 0.43492(17)
C2 C -0.0552(5) 0.1600(3) 0.39003(19)
H1 H -0.08710 0.11650 0.33500
C3 C -0.1795(5) 0.2516(4) 0.4225(2)
H2 H -0.29250 0.26770 0.38840
C4 C -0.1441(5) 0.3169(4) 0.4998(2)
C5 C 0.0256(5) 0.2911(3) 0.55297(18)
C6 C 0.0798(6) 0.3542(3) 0.6375(2)
C7 C 0.2467(6) 0.3199(4) 0.6821(2)
H3 H 0.28280 0.36150 0.73730
C8 C 0.3620(6) 0.2267(4) 0.6482(2)
H4 H 0.47390 0.20420 0.68070
C9 C 0.3154(5) 0.1677(4) 0.56896(19)
H5 H 0.39600 0.10460 0.54640
C10 C 0.1500(4) 0.1981(3) 0.51949(18)
C11 C 0.2454(5) 0.0382(3) 0.40046(17)
H6 H 0.37290 0.09190 0.40080
H7 H 0.26050 -0.03680 0.43920
C12 C 0.1878(5) -0.0266(3) 0.31270(19)
H8 H 0.10670 -0.11110 0.30900
C13 C 0.2360(4) 0.0193(3) 0.23953(17)
C14 C 0.3574(4) 0.1545(3) 0.23312(17)
H9 H 0.40220 0.19220 0.29200
C15 C 0.2370(4) 0.2606(3) 0.1921(2)
H10 H 0.18210 0.22320 0.13510
H11 H 0.12860 0.27630 0.22620
C16 C 0.3563(6) 0.3970(4) 0.1853(2)
H12 H 0.40030 0.43910 0.24250
H13 H 0.27540 0.46110 0.15610
C17 C 0.5301(5) 0.3776(4) 0.1369(2)
H14 H 0.48630 0.34230 0.07830
H15 H 0.60710 0.46790 0.13490
C18 C 0.6537(5) 0.2776(4) 0.1783(2)
H16 H 0.70770 0.31740 0.23490
H17 H 0.76250 0.26320 0.14430
C19 C 0.5382(5) 0.1385(4) 0.1867(2)
H18 H 0.62120 0.07800 0.21800
H19 H 0.49910 0.09310 0.12980
C20 C 0.1657(5) -0.0649(3) 0.15650(17)
H20 H 0.19940 -0.00510 0.11000
C21 C 0.2704(6) -0.1949(4) 0.1454(2)
H21 H 0.41110 -0.16830 0.14900
H22 H 0.24450 -0.25590 0.19150
C22 C 0.2046(8) -0.2733(4) 0.0606(2)
H23 H 0.26910 -0.35920 0.05640
H24 H 0.24290 -0.21570 0.01450
C23 C -0.0157(8) -0.3101(4) 0.0500(2)
H25 H -0.05500 -0.35530 -0.00690
H26 H -0.05270 -0.37620 0.09210
C24 C -0.1192(6) -0.1815(4) 0.0615(2)
H27 H -0.25950 -0.20860 0.05930
H28 H -0.09640 -0.12160 0.01460
C25 C -0.0514(5) -0.0997(4) 0.1452(2)
H29 H -0.11430 -0.01290 0.14770
H30 H -0.09150 -0.15450 0.19220
C26 C -0.2875(7) 0.4166(5) 0.5228(3)
H31 H -0.38110 0.42310 0.47410
H32 H -0.21910 0.50820 0.53920
H33 H -0.35490 0.38310 0.57010
C27 C -0.0357(8) 0.4512(4) 0.6822(3)
H34 H 0.02520 0.47520 0.73960
H35 H -0.16640 0.40670 0.68480
H36 H -0.04180 0.53540 0.65160
loop_
_geom_bond_atom_site_label_1
_geom_bond_atom_site_label_2
_geom_bond_distance
_geom_bond_site_symmetry_1
_geom_bond_site_symmetry_2
C1 C2 1.349 1_555 1_555
C2 H1 0.951 1_555 1_555
C3 C2 1.413 1_555 1_555
H2 C3 0.950 1_555 1_555
C4 C3 1.346 1_555 1_555
C5 C4 1.448 1_555 1_555
C6 C5 1.452 1_555 1_555
C7 C6 1.392 1_555 1_555
H3 C7 0.950 1_555 1_555
C8 C7 1.389 1_555 1_555
H4 C8 0.951 1_555 1_555
C9 C8 1.357 1_555 1_555
H5 C9 0.950 1_555 1_555
C10 C1 1.452 1_555 1_555
C11 C1 1.510 1_555 1_555
H6 C11 0.990 1_555 1_555
H7 C11 0.990 1_555 1_555
C12 C11 1.506 1_555 1_555
H8 C12 0.950 1_555 1_555
C13 C12 1.333 1_555 1_555
C14 C13 1.511 1_555 1_555
H9 C14 1.000 1_555 1_555
C15 C14 1.533 1_555 1_555
H10 C15 0.990 1_555 1_555
H11 C15 0.991 1_555 1_555
C16 C15 1.514 1_555 1_555
H12 C16 0.989 1_555 1_555
H13 C16 0.990 1_555 1_555
C17 C16 1.519 1_555 1_555
H14 C17 0.989 1_555 1_555
H15 C17 0.990 1_555 1_555
C18 C17 1.505 1_555 1_555
H16 C18 0.989 1_555 1_555
H17 C18 0.990 1_555 1_555
C19 C14 1.539 1_555 1_555
H18 C19 0.991 1_555 1_555
H19 C19 0.990 1_555 1_555
C20 C13 1.533 1_555 1_555
H20 C20 1.000 1_555 1_555
C21 C20 1.531 1_555 1_555
H21 C21 0.990 1_555 1_555
H22 C21 0.990 1_555 1_555
C22 C21 1.525 1_555 1_555
H23 C22 0.989 1_555 1_555
H24 C22 0.990 1_555 1_555
C23 C22 1.542 1_555 1_555
H25 C23 0.990 1_555 1_555
H26 C23 0.990 1_555 1_555
C24 C23 1.515 1_555 1_555
H27 C24 0.990 1_555 1_555
H28 C24 0.989 1_555 1_555
C25 C20 1.518 1_555 1_555
H29 C25 0.990 1_555 1_555
H30 C25 0.990 1_555 1_555
C26 C4 1.515 1_555 1_555
H31 C26 0.980 1_555 1_555
H32 C26 0.981 1_555 1_555
H33 C26 0.980 1_555 1_555
C27 C6 1.492 1_555 1_555
H34 C27 0.980 1_555 1_555
H35 C27 0.980 1_555 1_555
H36 C27 0.980 1_555 1_555
C5 C10 1.429 1_555 1_555
C9 C10 1.407 1_555 1_555
C18 C19 1.529 1_555 1_555
C24 C25 1.528 1_555 1_555
#END
