
#######################################################################
#
#                 Cambridge Crystallographic Data Centre
#                                CCDC
#
#######################################################################
#
# If this CIF has been generated from an entry in the Cambridge
# Structural Database, then it will include bibliographic, chemical,
# crystal, experimental, refinement or atomic coordinate data resulting
# from the CCDC's data processing and validation procedures.
#
#######################################################################

data_CSD_CIF_YOSYUC01
_audit_creation_date 2018-06-15
_audit_creation_method CSD-ConQuest-V1
_database_code_CSD YOSYUC01
_database_code_depnum_ccdc_archive 'CCDC 1837725'
_chemical_formula_sum 'C28 H18'
_chemical_formula_moiety
;
C28 H18
;
_journal_coden_Cambridge 1336
_journal_volume 20
_journal_year 2018
_journal_page_first 3758
_journal_name_full 'Org.Lett. '
loop_
_publ_author_name
"M.Ackermann"
"J.Freudenberg"
"D.Jansch"
"F.Rominger"
"U.H.F.Bunz"
"K.Mullen"
_chemical_name_systematic
;
4,5-diphenylacephenanthrylene
;
_cell_volume   1856.253
_exptl_crystal_colour 'yellow'
_exptl_crystal_density_diffrn 1.268
_exptl_crystal_description 'brick'
_diffrn_ambient_temperature 200
#These two values have been output from a single CSD field.
_refine_ls_R_factor_gt 0.0506
_refine_ls_wR_factor_gt 0.0506
_symmetry_cell_setting monoclinic
_symmetry_space_group_name_H-M 'P 21/c'
_symmetry_Int_Tables_number 14
loop_
_symmetry_equiv_pos_site_id
_symmetry_equiv_pos_as_xyz
1 x,y,z
2 -x,1/2+y,1/2-z
3 -x,-y,-z
4 x,-1/2-y,-1/2+z
_cell_length_a 11.8050(7)
_cell_length_b 9.5030(6)
_cell_length_c 16.5733(12)
_cell_angle_alpha 90
_cell_angle_beta 93.249(2)
_cell_angle_gamma 90
_cell_formula_units_Z 4
loop_
_atom_type_symbol
_atom_type_radius_bond
C 0.68
H 0.23
loop_
_atom_site_label
_atom_site_type_symbol
_atom_site_fract_x
_atom_site_fract_y
_atom_site_fract_z
C1 C 1.04947(19) 0.2574(2) 0.01701(14)
C2 C 0.9873(2) 0.2351(3) -0.05320(15)
H1 H 1.0089(19) 0.273(2) -0.1037(15)
C3 C 0.8851(2) 0.1526(2) -0.05338(14)
C4 C 0.8196(2) 0.1309(3) -0.12612(16)
H2 H 0.850(2) 0.174(2) -0.1769(16)
C5 C 0.7197(2) 0.0560(3) -0.12767(17)
H3 H 0.674(2) 0.042(3) -0.1803(17)
C6 C 0.6828(2) -0.0007(3) -0.05618(17)
H4 H 0.610(2) -0.055(3) -0.0586(16)
C7 C 0.7455(2) 0.0157(3) 0.01556(17)
H5 H 0.7141(18) -0.030(2) 0.0702(14)
C8 C 0.8476(2) 0.0913(2) 0.01918(14)
C9 C 0.9177(2) 0.1109(2) 0.09343(14)
C10 C 1.01311(19) 0.1932(2) 0.08910(13)
C11 C 1.08938(19) 0.2262(2) 0.15434(13)
C12 C 1.17807(19) 0.3180(2) 0.12205(14)
C13 C 1.15451(19) 0.3351(2) 0.04015(13)
C14 C 0.8981(2) 0.0555(3) 0.17101(15)
H6 H 0.8338(19) -0.009(2) 0.1780(13)
C15 C 0.9726(2) 0.0859(3) 0.23575(15)
H7 H 0.9578(18) 0.043(2) 0.2888(14)
C16 C 1.0680(2) 0.1723(3) 0.22941(15)
H8 H 1.1221(18) 0.190(2) 0.2792(14)
C17 C 1.2211(2) 0.4108(2) -0.01846(14)
C18 C 1.3377(2) 0.3878(3) -0.02123(16)
H9 H 1.375(2) 0.323(3) 0.0165(16)
C19 C 1.4006(3) 0.4567(3) -0.07709(17)
H10 H 1.482(2) 0.443(2) -0.0745(15)
C20 C 1.3478(3) 0.5510(3) -0.13061(17)
H11 H 1.393(2) 0.597(3) -0.1677(18)
C21 C 1.2332(3) 0.5741(3) -0.12942(16)
H12 H 1.194(2) 0.644(3) -0.1665(16)
C22 C 1.1698(2) 0.5040(3) -0.07384(15)
H13 H 1.087(2) 0.523(2) -0.0729(13)
C23 C 1.26796(19) 0.3860(2) 0.17345(14)
C24 C 1.3246(2) 0.3128(3) 0.23755(15)
H14 H 1.3065(19) 0.215(3) 0.2440(14)
C25 C 1.4020(2) 0.3814(3) 0.28964(16)
H15 H 1.4433(19) 0.334(2) 0.3336(15)
C26 C 1.4248(2) 0.5234(3) 0.27996(16)
H16 H 1.479(2) 0.571(2) 0.3200(15)
C27 C 1.3697(2) 0.5955(3) 0.21670(16)
H17 H 1.384(2) 0.695(3) 0.2087(15)
C28 C 1.2931(2) 0.5282(3) 0.16396(15)
H18 H 1.2502(17) 0.580(2) 0.1209(13)
loop_
_geom_bond_atom_site_label_1
_geom_bond_atom_site_label_2
_geom_bond_distance
_geom_bond_site_symmetry_1
_geom_bond_site_symmetry_2
C1 C2 1.357 1_555 1_555
C2 H1 0.959 1_555 1_555
C3 C2 1.439 1_555 1_555
C4 C3 1.410 1_555 1_555
H2 C4 1.019 1_555 1_555
C5 C4 1.376 1_555 1_555
H3 C5 1.008 1_555 1_555
C6 C5 1.394 1_555 1_555
H4 C6 1.001 1_555 1_555
C7 C6 1.373 1_555 1_555
H5 C7 1.088 1_555 1_555
C8 C3 1.429 1_555 1_555
C9 C8 1.455 1_555 1_555
C10 C1 1.429 1_555 1_555
C11 C10 1.403 1_555 1_555
C12 C11 1.486 1_555 1_555
C13 C1 1.475 1_555 1_555
C14 C9 1.420 1_555 1_555
H6 C14 0.988 1_555 1_555
C15 C14 1.379 1_555 1_555
H7 C15 0.994 1_555 1_555
C16 C11 1.382 1_555 1_555
H8 C16 1.028 1_555 1_555
C17 C13 1.472 1_555 1_555
C18 C17 1.397 1_555 1_555
H9 C18 0.966 1_555 1_555
C19 C18 1.384 1_555 1_555
H10 C19 0.968 1_555 1_555
C20 C19 1.384 1_555 1_555
H11 C20 0.944 1_555 1_555
C21 C20 1.372 1_555 1_555
H12 C21 1.000 1_555 1_555
C22 C17 1.389 1_555 1_555
H13 C22 0.995 1_555 1_555
C23 C12 1.472 1_555 1_555
C24 C23 1.407 1_555 1_555
H14 C24 0.961 1_555 1_555
C25 C24 1.384 1_555 1_555
H15 C25 0.965 1_555 1_555
C26 C25 1.387 1_555 1_555
H16 C26 1.003 1_555 1_555
C27 C26 1.384 1_555 1_555
H17 C27 0.971 1_555 1_555
C28 C23 1.394 1_555 1_555
H18 C28 0.983 1_555 1_555
C7 C8 1.402 1_555 1_555
C9 C10 1.376 1_555 1_555
C12 C13 1.380 1_555 1_555
C15 C16 1.402 1_555 1_555
C21 C22 1.389 1_555 1_555
C27 C28 1.379 1_555 1_555
#END
