
#######################################################################
#
#                 Cambridge Crystallographic Data Centre
#                                CCDC
#
#######################################################################
#
# If this CIF has been generated from an entry in the Cambridge
# Structural Database, then it will include bibliographic, chemical,
# crystal, experimental, refinement or atomic coordinate data resulting
# from the CCDC's data processing and validation procedures.
#
#######################################################################

data_CSD_CIF_YOSYUC
_audit_creation_date 2015-02-15
_audit_creation_method CSD-ConQuest-V1
_database_code_CSD YOSYUC
_database_code_depnum_ccdc_archive 'CCDC 1022047'
_chemical_formula_sum 'C28 H18'
_chemical_formula_moiety
;
C28 H18
;
_journal_coden_Cambridge 1220
_journal_volume 21
_journal_year 2015
_journal_page_first 4755
_journal_name_full 'Chem.-Eur.J. '
loop_
_publ_author_name
"En-Chih Liu"
"Min-Kuan Chen"
"Jen-Yi Li"
"Yao-Ting Wu"
_chemical_name_systematic
;
4,5-diphenylacephenanthrylene
;
_cell_volume    888.891
_exptl_crystal_colour 'orange'
_exptl_crystal_density_diffrn 1.324
_diffrn_ambient_temperature 100
#These two values have been output from a single CSD field.
_refine_ls_R_factor_gt 0.0482
_refine_ls_wR_factor_gt 0.0482
_symmetry_cell_setting triclinic
_symmetry_space_group_name_H-M 'P -1'
_symmetry_Int_Tables_number 2
loop_
_symmetry_equiv_pos_site_id
_symmetry_equiv_pos_as_xyz
1 x,y,z
2 -x,-y,-z
_cell_length_a 7.2764(4)
_cell_length_b 10.6347(5)
_cell_length_c 12.1668(6)
_cell_angle_alpha 83.123(2)
_cell_angle_beta 79.033(2)
_cell_angle_gamma 74.640(2)
_cell_formula_units_Z 2
loop_
_atom_type_symbol
_atom_type_radius_bond
C 0.68
H 0.23
loop_
_atom_site_label
_atom_site_type_symbol
_atom_site_fract_x
_atom_site_fract_y
_atom_site_fract_z
C1 C 0.2473(2) 1.15028(13) 0.26281(12)
H1 H 0.24810 1.19430 0.19010
C2 C 0.23628(19) 1.02216(14) 0.27876(12)
H2 H 0.22870 0.97870 0.21660
C3 C 0.23595(18) 0.95417(13) 0.38532(11)
C4 C 0.22165(18) 0.81926(13) 0.40532(11)
C5 C 0.23515(18) 0.76215(13) 0.51301(11)
C6 C 0.22679(19) 0.63238(13) 0.54741(11)
C7 C 0.24045(18) 0.61403(13) 0.66797(11)
C8 C 0.21275(19) 0.49395(13) 0.73680(11)
C9 C 0.0699(2) 0.50122(13) 0.83246(11)
H3 H -0.00270 0.58430 0.85680
C10 C 0.0332(2) 0.38841(14) 0.89221(12)
H4 H -0.06570 0.39460 0.95620
C11 C 0.1405(2) 0.26661(14) 0.85874(12)
H5 H 0.11610 0.18940 0.90010
C12 C 0.4007(2) 0.79208(14) 1.01371(12)
H6 H 0.43650 0.80740 1.08110
C13 C 0.2670(2) 0.88767(14) 0.96260(12)
H7 H 0.20930 0.96830 0.99580
C14 C 0.2171(2) 0.86613(13) 0.86318(12)
H8 H 0.12550 0.93260 0.82900
C15 C 0.29919(19) 0.74830(13) 0.81250(11)
C16 C 0.26070(18) 0.72740(12) 0.70254(11)
C17 C 0.25480(18) 0.82575(13) 0.60545(11)
C18 C 0.26272(19) 0.95321(13) 0.58756(11)
H9 H 0.27490 0.99850 0.64750
C19 C 0.25258(18) 1.01941(13) 0.47744(12)
C20 C 0.2575(2) 1.21594(13) 0.35366(12)
H10 H 0.26250 1.30500 0.34280
C21 C 0.26030(19) 1.15174(13) 0.45854(12)
H11 H 0.26760 1.19720 0.51950
C22 C 0.19230(19) 0.73969(13) 0.32827(12)
H12 H 0.17910 0.77400 0.25360
C23 C 0.1827(2) 0.61227(14) 0.36116(12)
H13 H 0.16290 0.56080 0.30790
C24 C 0.20118(19) 0.55573(14) 0.47083(12)
H14 H 0.19610 0.46750 0.49120
C25 C 0.2836(2) 0.25782(13) 0.76478(12)
H15 H 0.35850 0.17450 0.74240
C26 C 0.31800(19) 0.37049(13) 0.70317(12)
H16 H 0.41380 0.36350 0.63760
C27 C 0.4319(2) 0.65170(13) 0.86663(11)
H17 H 0.48800 0.57010 0.83480
C28 C 0.4820(2) 0.67371(14) 0.96547(12)
H18 H 0.57250 0.60740 1.00060
loop_
_geom_bond_atom_site_label_1
_geom_bond_atom_site_label_2
_geom_bond_distance
_geom_bond_site_symmetry_1
_geom_bond_site_symmetry_2
C1 H1 0.950 1_555 1_555
C2 C1 1.374 1_555 1_555
H2 C2 0.950 1_555 1_555
C3 C2 1.407 1_555 1_555
C4 C3 1.454 1_555 1_555
C5 C4 1.386 1_555 1_555
C6 C5 1.407 1_555 1_555
C7 C6 1.475 1_555 1_555
C8 C7 1.479 1_555 1_555
C9 C8 1.400 1_555 1_555
H3 C9 0.950 1_555 1_555
C10 C9 1.388 1_555 1_555
H4 C10 0.950 1_555 1_555
C11 C10 1.387 1_555 1_555
H5 C11 0.950 1_555 1_555
C12 H6 0.950 1_555 1_555
C13 C12 1.386 1_555 1_555
H7 C13 0.950 1_555 1_555
C14 C13 1.387 1_555 1_555
H8 C14 0.950 1_555 1_555
C15 C14 1.398 1_555 1_555
C16 C7 1.375 1_555 1_555
C17 C5 1.427 1_555 1_555
C18 C17 1.362 1_555 1_555
H9 C18 0.950 1_555 1_555
C19 C3 1.426 1_555 1_555
C20 C1 1.399 1_555 1_555
H10 C20 0.950 1_555 1_555
C21 C19 1.413 1_555 1_555
H11 C21 0.949 1_555 1_555
C22 C4 1.415 1_555 1_555
H12 C22 0.950 1_555 1_555
C23 C22 1.382 1_555 1_555
H13 C23 0.950 1_555 1_555
C24 C6 1.377 1_555 1_555
H14 C24 0.950 1_555 1_555
C25 C11 1.386 1_555 1_555
H15 C25 0.950 1_555 1_555
C26 C8 1.398 1_555 1_555
H16 C26 0.950 1_555 1_555
C27 C15 1.406 1_555 1_555
H17 C27 0.950 1_555 1_555
C28 C12 1.389 1_555 1_555
H18 C28 0.950 1_555 1_555
C15 C16 1.471 1_555 1_555
C16 C17 1.480 1_555 1_555
C18 C19 1.442 1_555 1_555
C20 C21 1.374 1_555 1_555
C23 C24 1.412 1_555 1_555
C25 C26 1.390 1_555 1_555
C27 C28 1.383 1_555 1_555
#END
