
#######################################################################
#
#                 Cambridge Crystallographic Data Centre
#                                CCDC
#
#######################################################################
#
# If this CIF has been generated from an entry in the Cambridge
# Structural Database, then it will include bibliographic, chemical,
# crystal, experimental, refinement or atomic coordinate data resulting
# from the CCDC's data processing and validation procedures.
#
#######################################################################

data_CSD_CIF_YOSZIR
_audit_creation_date 2015-02-15
_audit_creation_method CSD-ConQuest-V1
_database_code_CSD YOSZIR
_database_code_depnum_ccdc_archive 'CCDC 1022050'
_chemical_formula_sum 'C46 H42'
_chemical_formula_moiety
;
C46 H42
;
_journal_coden_Cambridge 1220
_journal_volume 21
_journal_year 2015
_journal_page_first 4755
_journal_name_full 'Chem.-Eur.J. '
loop_
_publ_author_name
"En-Chih Liu"
"Min-Kuan Chen"
"Jen-Yi Li"
"Yao-Ting Wu"
_chemical_name_systematic
;
8,9-bis(3,5-diisopropylphenyl)acenaphtho[3,2,1,8-lmnoa]acephenanthrylene
;
_cell_volume   1622.332
_exptl_crystal_colour 'red'
_exptl_crystal_density_diffrn 1.218
_diffrn_ambient_temperature 100
#These two values have been output from a single CSD field.
_refine_ls_R_factor_gt 0.0471
_refine_ls_wR_factor_gt 0.0471
_symmetry_cell_setting triclinic
_symmetry_space_group_name_H-M 'P -1'
_symmetry_Int_Tables_number 2
loop_
_symmetry_equiv_pos_site_id
_symmetry_equiv_pos_as_xyz
1 x,y,z
2 -x,-y,-z
_cell_length_a 10.4145(7)
_cell_length_b 11.8605(6)
_cell_length_c 13.8603(9)
_cell_angle_alpha 77.237(3)
_cell_angle_beta 76.768(3)
_cell_angle_gamma 83.744(3)
_cell_formula_units_Z 2
loop_
_atom_type_symbol
_atom_type_radius_bond
C 0.68
H 0.23
loop_
_atom_site_label
_atom_site_type_symbol
_atom_site_fract_x
_atom_site_fract_y
_atom_site_fract_z
C1 C -0.24686(17) 0.93609(14) 0.17860(13)
H1 H -0.17830 0.97020 0.19910
H2 H -0.29640 0.99730 0.13950
H3 H -0.20550 0.87980 0.13690
C2 C -0.34102(16) 0.87526(12) 0.27276(12)
H4 H -0.38610 0.93630 0.31050
C3 C -0.26435(15) 0.79105(12) 0.34251(11)
C4 C -0.17090(15) 0.83340(12) 0.38063(11)
H5 H -0.15640 0.91370 0.36210
C5 C -0.09831(15) 0.76126(12) 0.44504(11)
C6 C 0.00033(15) 0.80676(11) 0.48523(11)
C7 C 0.00594(15) 0.78106(12) 0.59447(12)
C8 C 0.11017(15) 0.84713(11) 0.59941(11)
C9 C 0.16308(15) 0.82872(11) 0.68245(11)
C10 C 0.29934(15) 0.84182(11) 0.67070(11)
C11 C 0.34380(15) 0.75871(12) 0.74901(11)
C12 C 0.47202(16) 0.71130(13) 0.73762(12)
C13 C 0.49031(17) 0.60060(13) 0.80360(13)
H6 H 0.57750 0.57050 0.80830
C14 C 0.38566(17) 0.53792(14) 0.85946(13)
H7 H 0.40200 0.46560 0.90190
C15 C 0.25020(16) 0.57951(13) 0.85531(12)
C16 C 0.23434(16) 0.69351(12) 0.80716(11)
C17 C 0.12256(15) 0.73576(12) 0.76386(11)
C18 C 0.02706(15) 0.66396(13) 0.76140(12)
C19 C -0.03848(15) 0.69352(12) 0.67629(12)
H8 H -0.11220 0.65260 0.67670
C20 C 0.10448(15) 0.87219(11) 0.43045(11)
C21 C 0.18383(15) 0.89266(11) 0.50118(11)
C22 C 0.31648(15) 0.90957(12) 0.48944(12)
H9 H 0.36630 0.94290 0.42490
C23 C 0.37970(15) 0.87637(11) 0.57577(11)
C24 C 0.56155(16) 0.76425(13) 0.64766(12)
H10 H 0.65360 0.74470 0.64110
C25 C 0.51790(16) 0.84238(12) 0.57080(12)
H11 H 0.58080 0.87490 0.51270
C26 C 0.14943(15) 0.90653(12) 0.31964(11)
C27 C 0.20285(15) 1.01426(12) 0.27837(12)
H12 H 0.20580 1.06500 0.32200
C28 C 0.25154(15) 1.04867(12) 0.17524(12)
C29 C 0.24957(16) 0.97138(12) 0.11285(12)
H13 H 0.28360 0.99360 0.04220
C30 C 0.19922(15) 0.86282(12) 0.15125(12)
C31 C 0.14761(15) 0.83183(12) 0.25474(12)
H14 H 0.11060 0.75880 0.28170
C32 C 0.20368(16) 0.77918(13) 0.08140(12)
H15 H 0.25610 0.81410 0.01330
C33 C 0.27377(18) 0.66297(13) 0.11782(13)
H16 H 0.36100 0.67590 0.12730
H17 H 0.28410 0.61460 0.06730
H18 H 0.22120 0.62380 0.18220
C34 C 0.06541(17) 0.76307(14) 0.06846(13)
H19 H 0.01030 0.73220 0.13460
H20 H 0.07150 0.70880 0.02340
H21 H 0.02580 0.83790 0.03920
C35 C 0.30842(15) 1.16653(12) 0.13195(12)
H22 H 0.29780 1.20780 0.18920
C36 C 0.23505(17) 1.24090(13) 0.05437(13)
H23 H 0.25200 1.20710 -0.00610
H24 H 0.26610 1.31950 0.03580
H25 H 0.14000 1.24390 0.08360
C37 C 0.45569(17) 1.15485(14) 0.08568(14)
H26 H 0.50220 1.10920 0.13680
H27 H 0.49050 1.23200 0.06210
H28 H 0.46910 1.11590 0.02840
C38 C -0.12111(15) 0.64301(12) 0.47165(11)
H29 H -0.07130 0.59260 0.51490
C39 C -0.21449(15) 0.59788(12) 0.43649(12)
C40 C -0.23707(16) 0.46878(12) 0.47163(13)
H30 H -0.14920 0.42610 0.45530
C41 C -0.32855(17) 0.42501(13) 0.41971(13)
H31 H -0.41740 0.46170 0.43710
H32 H -0.33180 0.34080 0.44210
H33 H -0.29580 0.44420 0.34620
C42 C -0.28513(19) 0.43853(14) 0.58701(13)
H34 H -0.37120 0.47920 0.60630
H35 H -0.22120 0.46230 0.61960
H36 H -0.29360 0.35480 0.60890
C43 C -0.28544(15) 0.67276(12) 0.37148(12)
H37 H -0.34930 0.64260 0.34650
C44 C -0.44832(18) 0.82046(14) 0.24285(14)
H38 H -0.40770 0.76030 0.20510
H39 H -0.49540 0.88010 0.20030
H40 H -0.51070 0.78590 0.30390
C45 C 0.03207(17) 0.55163(13) 0.82749(12)
H41 H -0.03970 0.50360 0.84040
C46 C 0.13774(17) 0.51218(14) 0.87233(12)
H42 H 0.13630 0.43810 0.91590
loop_
_geom_bond_atom_site_label_1
_geom_bond_atom_site_label_2
_geom_bond_distance
_geom_bond_site_symmetry_1
_geom_bond_site_symmetry_2
C1 H1 0.980 1_555 1_555
H2 C1 0.980 1_555 1_555
H3 C1 0.979 1_555 1_555
C2 C1 1.529 1_555 1_555
H4 C2 0.999 1_555 1_555
C3 C2 1.524 1_555 1_555
C4 C3 1.392 1_555 1_555
H5 C4 0.949 1_555 1_555
C5 C4 1.390 1_555 1_555
C6 C5 1.474 1_555 1_555
C7 C6 1.490 1_555 1_555
C8 C7 1.428 1_555 1_555
C9 C8 1.352 1_555 1_555
C10 C9 1.413 1_555 1_555
C11 C10 1.422 1_555 1_555
C12 C11 1.380 1_555 1_555
C13 C12 1.446 1_555 1_555
H6 C13 0.950 1_555 1_555
C14 C13 1.370 1_555 1_555
H7 C14 0.950 1_555 1_555
C15 C14 1.453 1_555 1_555
C16 C11 1.429 1_555 1_555
C17 C9 1.414 1_555 1_555
C18 C17 1.389 1_555 1_555
C19 C7 1.386 1_555 1_555
H8 C19 0.950 1_555 1_555
C20 C6 1.379 1_555 1_555
C21 C8 1.422 1_555 1_555
C22 C21 1.385 1_555 1_555
H9 C22 0.950 1_555 1_555
C23 C10 1.390 1_555 1_555
C24 C12 1.438 1_555 1_555
H10 C24 0.950 1_555 1_555
C25 C23 1.442 1_555 1_555
H11 C25 0.950 1_555 1_555
C26 C20 1.476 1_555 1_555
C27 C26 1.398 1_555 1_555
H12 C27 0.950 1_555 1_555
C28 C27 1.387 1_555 1_555
C29 C28 1.397 1_555 1_555
H13 C29 0.949 1_555 1_555
C30 C29 1.390 1_555 1_555
C31 C26 1.399 1_555 1_555
H14 C31 0.950 1_555 1_555
C32 C30 1.522 1_555 1_555
H15 C32 1.001 1_555 1_555
C33 C32 1.526 1_555 1_555
H16 C33 0.980 1_555 1_555
H17 C33 0.980 1_555 1_555
H18 C33 0.980 1_555 1_555
C34 C32 1.528 1_555 1_555
H19 C34 0.980 1_555 1_555
H20 C34 0.979 1_555 1_555
H21 C34 0.980 1_555 1_555
C35 C28 1.521 1_555 1_555
H22 C35 1.001 1_555 1_555
C36 C35 1.526 1_555 1_555
H23 C36 0.980 1_555 1_555
H24 C36 0.981 1_555 1_555
H25 C36 0.980 1_555 1_555
C37 C35 1.525 1_555 1_555
H26 C37 0.980 1_555 1_555
H27 C37 0.981 1_555 1_555
H28 C37 0.980 1_555 1_555
C38 C5 1.401 1_555 1_555
H29 C38 0.950 1_555 1_555
C39 C38 1.384 1_555 1_555
C40 C39 1.528 1_555 1_555
H30 C40 1.000 1_555 1_555
C41 C40 1.511 1_555 1_555
H31 C41 0.980 1_555 1_555
H32 C41 0.980 1_555 1_555
H33 C41 0.981 1_555 1_555
C42 C40 1.535 1_555 1_555
H34 C42 0.980 1_555 1_555
H35 C42 0.981 1_555 1_555
H36 C42 0.980 1_555 1_555
C43 C3 1.398 1_555 1_555
H37 C43 0.950 1_555 1_555
C44 C2 1.527 1_555 1_555
H38 C44 0.980 1_555 1_555
H39 C44 0.980 1_555 1_555
H40 C44 0.979 1_555 1_555
C45 C18 1.444 1_555 1_555
H41 C45 0.950 1_555 1_555
C46 C15 1.435 1_555 1_555
H42 C46 0.949 1_555 1_555
C15 C16 1.380 1_555 1_555
C16 C17 1.423 1_555 1_555
C18 C19 1.454 1_555 1_555
C20 C21 1.491 1_555 1_555
C22 C23 1.455 1_555 1_555
C24 C25 1.376 1_555 1_555
C30 C31 1.392 1_555 1_555
C39 C43 1.398 1_555 1_555
C45 C46 1.374 1_555 1_555
#END
