
#######################################################################
#
#                 Cambridge Crystallographic Data Centre
#                                CCDC
#
#######################################################################
#
# If this CIF has been generated from an entry in the Cambridge
# Structural Database, then it will include bibliographic, chemical,
# crystal, experimental, refinement or atomic coordinate data resulting
# from the CCDC's data processing and validation procedures.
#
#######################################################################

data_CSD_CIF_YOWSIM
_audit_creation_date 1995-09-14
_audit_creation_method CSD-ConQuest-V1
_database_code_CSD YOWSIM
_chemical_formula_sum 'C24 H20'
_chemical_formula_moiety
;
C24 H20
;
_journal_coeditor_code "IUCr CR1130"
_journal_coden_Cambridge 591
_journal_volume 51
_journal_year 1995
_journal_page_first 904
_journal_name_full 'Acta Crystallogr.,Sect.C:Cryst.Struct.Commun. '
loop_
_publ_author_name
"A.V.Fratini"
"M.L.Chabinyc"
"T.J.Perko"
"W.W.Adams"
_chemical_name_systematic
;
syn-(2.2)Paracyclonaphthane
;
_cell_volume   1605.414
_exptl_crystal_density_diffrn 1.28
_diffrn_ambient_temperature ?
_diffrn_special_details
;
The study was carried out at room temperature,in the range 283-303K

;
#These two values have been output from a single CSD field.
_refine_ls_R_factor_gt 0.042
_refine_ls_wR_factor_gt 0.042
loop_
_citation_database_id_CSD
_citation_special_details
YOWSEI "is a stereoisomer of this entry"
_symmetry_cell_setting monoclinic
_symmetry_space_group_name_H-M 'P 21/n'
_symmetry_Int_Tables_number 14
loop_
_symmetry_equiv_pos_site_id
_symmetry_equiv_pos_as_xyz
1 x,y,z
2 1/2-x,1/2+y,1/2-z
3 -x,-y,-z
4 -1/2+x,-1/2-y,-1/2+z
_cell_length_a 8.371(3)
_cell_length_b 11.807(4)
_cell_length_c 16.704(8)
_cell_angle_alpha 90
_cell_angle_beta 103.49(3)
_cell_angle_gamma 90
_cell_formula_units_Z 4
loop_
_atom_type_symbol
_atom_type_radius_bond
C 0.68
H 0.23
loop_
_atom_site_label
_atom_site_type_symbol
_atom_site_fract_x
_atom_site_fract_y
_atom_site_fract_z
C1 C 0.4133(3) 0.0413(2) 0.6354(2)
C2 C 0.4612(3) -0.0003(2) 0.7133(2)
C3 C 0.5879(4) 0.0510(3) 0.7724(2)
C4 C 0.6706(3) 0.1427(2) 0.7531(2)
C5 C 0.7562(3) 0.2455(2) 0.6398(2)
C6 C 0.7366(3) 0.2698(2) 0.5589(2)
C7 C 0.6112(4) 0.2192(3) 0.5007(2)
C8 C 0.5058(3) 0.1460(2) 0.5250(2)
C9 C 0.5230(3) 0.1171(2) 0.6080(1)
C10 C 0.6533(3) 0.1681(2) 0.6674(2)
C11 C 0.2387(3) 0.0252(2) 0.5870(2)
C12 C 0.1138(4) 0.1047(3) 0.6159(2)
C13 C 0.1944(3) 0.1963(2) 0.6744(2)
C14 C 0.2317(4) 0.1794(3) 0.7576(2)
C15 C 0.3621(4) 0.2371(3) 0.8091(2)
C16 C 0.4580(3) 0.3101(2) 0.7798(2)
C17 C 0.4682(3) 0.4424(2) 0.6652(2)
C18 C 0.4047(4) 0.4820(3) 0.5882(2)
C19 C 0.2710(4) 0.4296(3) 0.5379(2)
C20 C 0.2045(3) 0.3373(2) 0.5645(2)
C21 C 0.2625(3) 0.2946(2) 0.6447(1)
C22 C 0.3974(3) 0.3499(2) 0.6978(1)
C23 C 0.6339(4) 0.3289(3) 0.8267(2)
C24 C 0.7494(4) 0.2260(3) 0.8193(2)
H1 H 0.395(3) -0.048(2) 0.738(1)
H2 H 0.614(3) 0.028(2) 0.833(2)
H3 H 0.841(3) 0.271(2) 0.680(1)
H4 H 0.809(3) 0.320(2) 0.542(1)
H5 H 0.597(3) 0.233(2) 0.441(1)
H6 H 0.415(3) 0.113(2) 0.486(1)
H7 H 0.176(3) 0.118(2) 0.780(1)
H8 H 0.388(3) 0.211(2) 0.866(1)
H9 H 0.555(3) 0.474(2) 0.696(1)
H10 H 0.455(3) 0.547(2) 0.563(2)
H11 H 0.220(3) 0.465(2) 0.485(2)
H12 H 0.115(3) 0.300(2) 0.528(1)
H13 H 0.206(3) -0.050(2) 0.593(1)
H14 H 0.056(4) 0.057(3) 0.640(2)
H15 H 0.025(3) 0.132(2) 0.564(2)
H16 H 0.634(3) 0.343(2) 0.886(1)
H17 H 0.856(3) 0.267(3) 0.812(2)
H18 H 0.777(4) 0.183(3) 0.871(2)
H19 H 0.227(4) 0.037(3) 0.527(2)
H20 H 0.691(5) 0.394(4) 0.799(2)
loop_
_geom_bond_atom_site_label_1
_geom_bond_atom_site_label_2
_geom_bond_distance
_geom_bond_site_symmetry_1
_geom_bond_site_symmetry_2
C1 C2 1.361 1_555 1_555
C2 C3 1.406 1_555 1_555
C3 C4 1.364 1_555 1_555
C4 C10 1.436 1_555 1_555
C5 C6 1.353 1_555 1_555
C6 C7 1.388 1_555 1_555
C7 C8 1.363 1_555 1_555
C8 C9 1.402 1_555 1_555
C9 C1 1.432 1_555 1_555
C10 C5 1.405 1_555 1_555
C11 C1 1.508 1_555 1_555
C12 C11 1.563 1_555 1_555
C13 C12 1.507 1_555 1_555
C14 C13 1.366 1_555 1_555
C15 C14 1.399 1_555 1_555
C16 C15 1.345 1_555 1_555
C17 C18 1.355 1_555 1_555
C18 C19 1.379 1_555 1_555
C19 C20 1.345 1_555 1_555
C20 C21 1.408 1_555 1_555
C21 C13 1.432 1_555 1_555
C22 C16 1.425 1_555 1_555
C23 C16 1.514 1_555 1_555
C24 C4 1.512 1_555 1_555
H1 C2 0.949 1_555 1_555
H2 C3 1.021 1_555 1_555
H3 C5 0.907 1_555 1_555
H4 C6 0.937 1_555 1_555
H5 C7 0.990 1_555 1_555
H6 C8 0.961 1_555 1_555
H7 C14 0.982 1_555 1_555
H8 C15 0.974 1_555 1_555
H9 C17 0.870 1_555 1_555
H10 C18 1.013 1_555 1_555
H11 C19 0.981 1_555 1_555
H12 C20 0.956 1_555 1_555
H13 C11 0.941 1_555 1_555
H14 C12 0.897 1_555 1_555
H15 C12 1.052 1_555 1_555
H16 C23 1.004 1_555 1_555
H17 C24 1.047 1_555 1_555
H18 C24 0.982 1_555 1_555
H19 C11 0.994 1_555 1_555
H20 C23 1.066 1_555 1_555
C9 C10 1.425 1_555 1_555
C17 C22 1.411 1_555 1_555
C21 C22 1.422 1_555 1_555
C23 C24 1.575 1_555 1_555
#END
