
#######################################################################
#
#                 Cambridge Crystallographic Data Centre
#                                CCDC
#
#######################################################################
#
# If this CIF has been generated from an entry in the Cambridge
# Structural Database, then it will include bibliographic, chemical,
# crystal, experimental, refinement or atomic coordinate data resulting
# from the CCDC's data processing and validation procedures.
#
#######################################################################

data_CSD_CIF_YOWSEI
_audit_creation_date 1995-09-14
_audit_creation_method CSD-ConQuest-V1
_database_code_CSD YOWSEI
_chemical_formula_sum 'C24 H20'
_chemical_formula_moiety
;
C24 H20
;
_journal_coeditor_code "IUCr CR1130"
_journal_coden_Cambridge 591
_journal_volume 51
_journal_year 1995
_journal_page_first 904
_journal_name_full 'Acta Crystallogr.,Sect.C:Cryst.Struct.Commun. '
loop_
_publ_author_name
"A.V.Fratini"
"M.L.Chabinyc"
"T.J.Perko"
"W.W.Adams"
_chemical_name_systematic
;
anti-(2.2)Paracyclonaphthane
;
_cell_volume   1592.264
_exptl_crystal_density_diffrn 1.29
_diffrn_ambient_temperature ?
_diffrn_special_details
;
The study was carried out at room temperature,in the range 283-303K

;
#These two values have been output from a single CSD field.
_refine_ls_R_factor_gt 0.047
_refine_ls_wR_factor_gt 0.047
loop_
_citation_database_id_CSD
_citation_special_details
YOWSIM "is a stereoisomer of this entry"
_symmetry_cell_setting monoclinic
_symmetry_space_group_name_H-M 'P 21/c'
_symmetry_Int_Tables_number 14
loop_
_symmetry_equiv_pos_site_id
_symmetry_equiv_pos_as_xyz
1 x,y,z
2 -x,1/2+y,1/2-z
3 -x,-y,-z
4 x,-1/2-y,-1/2+z
_cell_length_a 14.589(3)
_cell_length_b 13.384(3)
_cell_length_c 8.158(3)
_cell_angle_alpha 90
_cell_angle_beta 91.65(3)
_cell_angle_gamma 90
_cell_formula_units_Z 4
loop_
_atom_type_symbol
_atom_type_radius_bond
C 0.68
H 0.23
loop_
_atom_site_label
_atom_site_type_symbol
_atom_site_fract_x
_atom_site_fract_y
_atom_site_fract_z
C1 C -0.0068(2) 0.0014(2) 0.2423(3)
C2 C 0.0839(2) 0.0166(2) 0.2159(3)
C3 C 0.1126(1) 0.0835(2) 0.0948(3)
C4 C 0.0514(1) 0.1359(2) -0.0010(3)
C5 C -0.1077(2) 0.2037(2) -0.0227(3)
C6 C -0.1970(2) 0.2030(2) 0.0231(3)
C7 C -0.2254(2) 0.1359(2) 0.1420(3)
C8 C -0.1645(2) 0.0714(2) 0.2132(3)
C9 C -0.0707(1) 0.0714(2) 0.1731(2)
C10 C -0.0419(1) 0.1395(2) 0.0507(3)
C11 C 0.0761(2) 0.1690(2) -0.1704(3)
C12 C -0.0372(2) -0.0977(2) 0.3091(3)
C13 C 0.4907(2) 0.5119(2) 0.2421(3)
C14 C 0.5009(2) 0.6084(2) 0.1940(3)
C15 C 0.4523(2) 0.6464(2) 0.0564(3)
C16 C 0.3939(1) 0.5879(2) -0.0363(3)
C17 C 0.2958(2) 0.4365(2) -0.0376(3)
C18 C 0.2715(2) 0.3473(2) 0.0267(4)
C19 C 0.3176(2) 0.3108(2) 0.1655(4)
C20 C 0.3876(2) 0.3639(2) 0.2378(3)
C21 C 0.4144(1) 0.4578(2) 0.1752(2)
C22 C 0.3662(1) 0.4955(2) 0.0343(3)
C23 C 0.3759(2) 0.6112(2) -0.2153(3)
C24 C 0.5696(2) 0.4591(2) 0.3316(3)
H1 H 0.131(1) -0.029(2) 0.264(3)
H2 H 0.177(1) 0.083(2) 0.063(2)
H3 H -0.090(2) 0.249(2) -0.104(3)
H4 H -0.238(2) 0.249(2) -0.029(3)
H5 H -0.288(2) 0.136(2) 0.172(3)
H6 H -0.181(2) 0.026(2) 0.296(3)
H7 H 0.550(1) 0.646(2) 0.245(3)
H8 H 0.472(2) 0.712(2) 0.011(3)
H9 H 0.264(2) 0.462(2) -0.139(3)
H10 H 0.221(2) 0.310(2) -0.028(3)
H11 H 0.295(2) 0.249(2) 0.215(4)
H12 H 0.421(2) 0.340(2) 0.337(3)
H13 H 0.143(1) 0.169(2) -0.178(3)
H14 H 0.055(1) 0.237(2) -0.195(3)
H15 H 0.015(1) -0.129(2) 0.362(3)
H16 H -0.082(2) -0.090(2) 0.393(3)
H17 H 0.308(2) 0.604(2) -0.251(3)
H18 H 0.395(2) 0.683(2) -0.234(3)
H19 H 0.552(2) 0.417(2) 0.422(3)
H20 H 0.612(2) 0.515(2) 0.382(3)
C12B C 0.0372(2) 0.0977(2) -0.3091(3)
C11B C -0.0761(2) -0.1690(2) 0.1704(3)
C1B C 0.0068(2) -0.0014(2) -0.2423(3)
H15B H -0.015(1) 0.129(2) -0.362(3)
H16B H 0.082(2) 0.090(2) -0.393(3)
C4B C -0.0514(1) -0.1359(2) 0.0010(3)
H13B H -0.143(1) -0.169(2) 0.178(3)
H14B H -0.055(1) -0.237(2) 0.195(3)
C2B C -0.0839(2) -0.0166(2) -0.2159(3)
C9B C 0.0707(1) -0.0714(2) -0.1731(2)
C3B C -0.1126(1) -0.0835(2) -0.0948(3)
C10B C 0.0419(1) -0.1395(2) -0.0507(3)
H1B H -0.131(1) 0.029(2) -0.264(3)
C8B C 0.1645(2) -0.0714(2) -0.2132(3)
H2B H -0.177(1) -0.083(2) -0.063(2)
C5B C 0.1077(2) -0.2037(2) 0.0227(3)
C7B C 0.2254(2) -0.1359(2) -0.1420(3)
H6B H 0.181(2) -0.026(2) -0.296(3)
C6B C 0.1970(2) -0.2030(2) -0.0231(3)
H3B H 0.090(2) -0.249(2) 0.104(3)
H5B H 0.288(2) -0.136(2) -0.172(3)
H4B H 0.238(2) -0.249(2) 0.029(3)
C24B C 0.4304(2) 0.5409(2) -0.3316(3)
C23B C 0.6241(2) 0.3888(2) 0.2153(3)
C13B C 0.5093(2) 0.4881(2) -0.2421(3)
H19B H 0.448(2) 0.583(2) -0.422(3)
H20B H 0.388(2) 0.485(2) -0.382(3)
C16B C 0.6061(1) 0.4121(2) 0.0363(3)
H17B H 0.692(2) 0.396(2) 0.251(3)
H18B H 0.605(2) 0.317(2) 0.234(3)
C14B C 0.4991(2) 0.3916(2) -0.1940(3)
C21B C 0.5856(1) 0.5422(2) -0.1752(2)
C15B C 0.5477(2) 0.3536(2) -0.0564(3)
C22B C 0.6338(1) 0.5045(2) -0.0343(3)
H7B H 0.450(1) 0.354(2) -0.245(3)
C20B C 0.6124(2) 0.6361(2) -0.2378(3)
H8B H 0.528(2) 0.288(2) -0.011(3)
C17B C 0.7042(2) 0.5635(2) 0.0376(3)
C19B C 0.6824(2) 0.6892(2) -0.1655(4)
H12B H 0.579(2) 0.660(2) -0.337(3)
C18B C 0.7285(2) 0.6527(2) -0.0267(4)
H9B H 0.736(2) 0.538(2) 0.139(3)
H11B H 0.705(2) 0.751(2) -0.215(4)
H10B H 0.779(2) 0.690(2) 0.028(3)
loop_
_geom_bond_atom_site_label_1
_geom_bond_atom_site_label_2
_geom_bond_distance
_geom_bond_site_symmetry_1
_geom_bond_site_symmetry_2
C1 C2 1.362 1_555 1_555
C2 C3 1.406 1_555 1_555
C3 C4 1.364 1_555 1_555
C4 C10 1.437 1_555 1_555
C5 C6 1.366 1_555 1_555
C6 C7 1.394 1_555 1_555
C7 C8 1.357 1_555 1_555
C8 C9 1.416 1_555 1_555
C9 C1 1.427 1_555 1_555
C10 C5 1.409 1_555 1_555
C11 C4 1.505 1_555 1_555
C12 C1 1.506 1_555 1_555
C13 C14 1.359 1_555 1_555
C14 C15 1.406 1_555 1_555
C15 C16 1.369 1_555 1_555
C16 C22 1.428 1_555 1_555
C17 C18 1.355 1_555 1_555
C18 C19 1.389 1_555 1_555
C19 C20 1.364 1_555 1_555
C20 C21 1.416 1_555 1_555
C21 C13 1.423 1_555 1_555
C22 C17 1.410 1_555 1_555
C23 C16 1.509 1_555 1_555
C24 C13 1.520 1_555 1_555
H1 C2 0.992 1_555 1_555
H2 C3 0.982 1_555 1_555
H3 C5 0.940 1_555 1_555
H4 C6 0.950 1_555 1_555
H5 C7 0.952 1_555 1_555
H6 C8 0.945 1_555 1_555
H7 C14 0.960 1_555 1_555
H8 C15 0.998 1_555 1_555
H9 C17 0.997 1_555 1_555
H10 C18 0.986 1_555 1_555
H11 C19 0.982 1_555 1_555
H12 C20 0.986 1_555 1_555
H13 C11 0.980 1_555 1_555
H14 C11 0.980 1_555 1_555
H15 C12 0.961 1_555 1_555
H16 C12 0.965 1_555 1_555
H17 C23 1.029 1_555 1_555
H18 C23 1.013 1_555 1_555
H19 C24 0.969 1_555 1_555
H20 C24 1.047 1_555 1_555
C12B C11 1.574 1_555 1_555
C11B C12 1.574 1_555 1_555
C1B C12B 1.506 1_555 1_555
H15B C12B 0.961 1_555 1_555
H16B C12B 0.965 1_555 1_555
C4B C11B 1.505 1_555 1_555
H13B C11B 0.980 1_555 1_555
H14B C11B 0.980 1_555 1_555
C2B C1B 1.362 1_555 1_555
C9B C1B 1.427 1_555 1_555
C3B C4B 1.364 1_555 1_555
C10B C4B 1.437 1_555 1_555
H1B C2B 0.992 1_555 1_555
C8B C9B 1.416 1_555 1_555
H2B C3B 0.982 1_555 1_555
C5B C10B 1.409 1_555 1_555
C7B C8B 1.357 1_555 1_555
H6B C8B 0.945 1_555 1_555
C6B C5B 1.366 1_555 1_555
H3B C5B 0.940 1_555 1_555
H5B C7B 0.952 1_555 1_555
H4B C6B 0.950 1_555 1_555
C24B C23 1.569 1_555 1_555
C23B C24 1.569 1_555 1_555
C13B C24B 1.520 1_555 1_555
H19B C24B 0.969 1_555 1_555
H20B C24B 1.047 1_555 1_555
C16B C23B 1.509 1_555 1_555
H17B C23B 1.029 1_555 1_555
H18B C23B 1.013 1_555 1_555
C14B C13B 1.359 1_555 1_555
C21B C13B 1.423 1_555 1_555
C15B C16B 1.369 1_555 1_555
C22B C16B 1.428 1_555 1_555
H7B C14B 0.960 1_555 1_555
C20B C21B 1.416 1_555 1_555
H8B C15B 0.998 1_555 1_555
C17B C22B 1.410 1_555 1_555
C19B C20B 1.364 1_555 1_555
H12B C20B 0.986 1_555 1_555
C18B C17B 1.355 1_555 1_555
H9B C17B 0.997 1_555 1_555
H11B C19B 0.982 1_555 1_555
H10B C18B 0.986 1_555 1_555
C9 C10 1.424 1_555 1_555
C21 C22 1.423 1_555 1_555
C2B C3B 1.406 1_555 1_555
C9B C10B 1.424 1_555 1_555
C7B C6B 1.394 1_555 1_555
C14B C15B 1.406 1_555 1_555
C21B C22B 1.423 1_555 1_555
C19B C18B 1.389 1_555 1_555
#END
