
#######################################################################
#
#                 Cambridge Crystallographic Data Centre
#                                CCDC
#
#######################################################################
#
# If this CIF has been generated from an entry in the Cambridge
# Structural Database, then it will include bibliographic, chemical,
# crystal, experimental, refinement or atomic coordinate data resulting
# from the CCDC's data processing and validation procedures.
#
#######################################################################

data_CSD_CIF_YUNYEN
_audit_creation_date 2015-07-02
_audit_creation_method CSD-ConQuest-V1
_database_code_CSD YUNYEN
_database_code_depnum_ccdc_archive 'CCDC 1401394'
_chemical_formula_sum 'C36 H20'
_chemical_formula_moiety
;
C36 H20
;
_journal_coden_Cambridge 1695
_journal_volume 3
_journal_year 2015
_journal_page_first 7583
_journal_name_full 'J.Mater.Chem.C '
loop_
_publ_author_name
"Tien-Lin Wu"
"Chi-Hsien Kuo"
"Bo-Chao Lin"
"Yu-Tai Tao"
"Chao-Ping Hsu"
"Rai-Shung Liu"
_chemical_name_systematic
;
2,10-dimethylbenzo[lm]chryseno[1,12,11,10-opqrab]perylene
;
_cell_volume   2067.199
_exptl_crystal_colour 'orange'
_exptl_crystal_density_diffrn 1.454
_exptl_crystal_description 'prism'
_diffrn_ambient_temperature 200
#These two values have been output from a single CSD field.
_refine_ls_R_factor_gt 0.0659
_refine_ls_wR_factor_gt 0.0659
_symmetry_cell_setting orthorhombic
_symmetry_space_group_name_H-M 'P b c a'
_symmetry_Int_Tables_number 61
loop_
_symmetry_equiv_pos_site_id
_symmetry_equiv_pos_as_xyz
1 x,y,z
2 1/2+x,1/2-y,-z
3 -x,1/2+y,1/2-z
4 1/2-x,-y,1/2+z
5 -x,-y,-z
6 -1/2-x,-1/2+y,z
7 x,-1/2-y,-1/2+z
8 -1/2+x,y,-1/2-z
_cell_length_a 5.0661(17)
_cell_length_b 15.948(6)
_cell_length_c 25.586(9)
_cell_angle_alpha 90
_cell_angle_beta 90
_cell_angle_gamma 90
_cell_formula_units_Z 4
loop_
_atom_type_symbol
_atom_type_radius_bond
C 0.68
H 0.23
loop_
_atom_site_label
_atom_site_type_symbol
_atom_site_fract_x
_atom_site_fract_y
_atom_site_fract_z
C1 C 1.1133(10) 0.6142(3) 0.80512(17)
H1 H 1.23740 0.65610 0.81850
H2 H 0.99860 0.64000 0.77880
H3 H 1.21170 0.56780 0.78920
C2 C 0.9471(9) 0.5812(3) 0.84951(16)
C3 C 0.9868(8) 0.6089(3) 0.90012(15)
H4 H 1.12030 0.64930 0.90670
C4 C 0.8345(8) 0.5787(3) 0.94208(15)
C5 C 0.6381(8) 0.5179(3) 0.93219(15)
C6 C 0.5975(9) 0.4879(3) 0.88008(15)
C7 C 0.7551(9) 0.5209(3) 0.84068(16)
H5 H 0.73000 0.50120 0.80600
C8 C 0.4784(8) 0.4855(3) 0.97458(15)
C9 C 0.2802(9) 0.4239(3) 0.96401(15)
C10 C 0.2397(9) 0.3942(3) 0.91158(15)
C11 C 0.3964(8) 0.4248(3) 0.86979(15)
C12 C 0.3493(9) 0.3928(3) 0.81965(17)
H6 H 0.45250 0.41270 0.79120
C13 C 0.1563(9) 0.3328(3) 0.81022(17)
H7 H 0.13040 0.31220 0.77580
C14 C 0.0025(9) 0.3030(3) 0.85030(17)
H8 H -0.13100 0.26270 0.84350
C15 C 0.0431(8) 0.3325(3) 0.90162(16)
C16 C -0.1170(9) 0.3046(3) 0.94368(16)
H9 H -0.25370 0.26520 0.93710
C17 C -0.0788(9) 0.3330(3) 0.99298(16)
H10 H -0.18760 0.31250 1.02040
C18 C 0.1216(8) 0.3931(3) 1.00460(15)
C1D C -0.1133(10) 0.3858(3) 1.19488(17)
H1D H -0.23740 0.34390 1.18150
H2D H 0.00140 0.36000 1.22120
H3D H -0.21170 0.43220 1.21080
C2D C 0.0529(9) 0.4188(3) 1.15049(16)
C3D C 0.0132(8) 0.3911(3) 1.09988(15)
H4D H -0.12030 0.35070 1.09330
C4D C 0.1655(8) 0.4213(3) 1.05792(15)
C5D C 0.3619(8) 0.4821(3) 1.06781(15)
C6D C 0.4025(9) 0.5121(3) 1.11992(15)
C7D C 0.2449(9) 0.4791(3) 1.15932(16)
H5D H 0.27000 0.49880 1.19400
C8D C 0.5216(8) 0.5145(3) 1.02542(15)
C9D C 0.7198(9) 0.5761(3) 1.03599(15)
C10D C 0.7603(9) 0.6058(3) 1.08842(15)
C11D C 0.6036(8) 0.5752(3) 1.13021(15)
C12D C 0.6507(9) 0.6072(3) 1.18035(17)
H6D H 0.54750 0.58730 1.20880
C13D C 0.8437(9) 0.6672(3) 1.18978(17)
H7D H 0.86960 0.68780 1.22420
C14D C 0.9975(9) 0.6970(3) 1.14970(17)
H8D H 1.13100 0.73730 1.15650
C15D C 0.9569(8) 0.6675(3) 1.09838(16)
C16D C 1.1170(9) 0.6954(3) 1.05632(16)
H9D H 1.25370 0.73480 1.06290
C17D C 1.0788(9) 0.6670(3) 1.00702(16)
H10D H 1.18760 0.68750 0.97960
C18D C 0.8784(8) 0.6069(3) 0.99540(15)
loop_
_geom_bond_atom_site_label_1
_geom_bond_atom_site_label_2
_geom_bond_distance
_geom_bond_site_symmetry_1
_geom_bond_site_symmetry_2
C1 H1 0.979 1_555 1_555
H2 C1 0.980 1_555 1_555
H3 C1 0.981 1_555 1_555
C2 C1 1.509 1_555 1_555
C3 C2 1.383 1_555 1_555
H4 C3 0.949 1_555 1_555
C4 C3 1.407 1_555 1_555
C5 C4 1.412 1_555 1_555
C6 C5 1.431 1_555 1_555
C7 C2 1.386 1_555 1_555
H5 C7 0.950 1_555 1_555
C8 C5 1.448 1_555 1_555
C9 C8 1.431 1_555 1_555
C10 C9 1.437 1_555 1_555
C11 C6 1.456 1_555 1_555
C12 C11 1.401 1_555 1_555
H6 C12 0.951 1_555 1_555
C13 C12 1.389 1_555 1_555
H7 C13 0.949 1_555 1_555
C14 C13 1.373 1_555 1_555
H8 C14 0.949 1_555 1_555
C15 C10 1.423 1_555 1_555
C16 C15 1.419 1_555 1_555
H9 C16 0.950 1_555 1_555
C17 C16 1.354 1_555 1_555
H10 C17 0.950 1_555 1_555
C18 C9 1.402 1_555 1_555
C1D H1D 0.979 1_555 1_555
H2D C1D 0.980 1_555 1_555
H3D C1D 0.981 1_555 1_555
C2D C1D 1.509 1_555 1_555
C3D C2D 1.383 1_555 1_555
H4D C3D 0.949 1_555 1_555
C4D C18 1.454 1_555 1_555
C5D C4D 1.412 1_555 1_555
C6D C5D 1.431 1_555 1_555
C7D C2D 1.386 1_555 1_555
H5D C7D 0.950 1_555 1_555
C8D C8 1.398 1_555 1_555
C9D C8D 1.431 1_555 1_555
C10D C9D 1.437 1_555 1_555
C11D C6D 1.456 1_555 1_555
C12D C11D 1.401 1_555 1_555
H6D C12D 0.951 1_555 1_555
C13D C12D 1.389 1_555 1_555
H7D C13D 0.949 1_555 1_555
C14D C13D 1.373 1_555 1_555
H8D C14D 0.949 1_555 1_555
C15D C10D 1.423 1_555 1_555
C16D C15D 1.419 1_555 1_555
H9D C16D 0.950 1_555 1_555
C17D C16D 1.354 1_555 1_555
H10D C17D 0.950 1_555 1_555
C18D C4 1.454 1_555 1_555
C6 C7 1.389 1_555 1_555
C10 C11 1.418 1_555 1_555
C14 C15 1.410 1_555 1_555
C17 C18 1.428 1_555 1_555
C3D C4D 1.407 1_555 1_555
C5D C8D 1.448 1_555 1_555
C6D C7D 1.389 1_555 1_555
C9D C18D 1.402 1_555 1_555
C10D C11D 1.418 1_555 1_555
C14D C15D 1.410 1_555 1_555
C17D C18D 1.428 1_555 1_555
#END
