
#######################################################################
#
#                 Cambridge Crystallographic Data Centre
#                                CCDC
#
#######################################################################
#
# If this CIF has been generated from an entry in the Cambridge
# Structural Database, then it will include bibliographic, chemical,
# crystal, experimental, refinement or atomic coordinate data resulting
# from the CCDC's data processing and validation procedures.
#
#######################################################################

data_CSD_CIF_YUNYAJ
_audit_creation_date 2015-07-02
_audit_creation_method CSD-ConQuest-V1
_database_code_CSD YUNYAJ
_database_code_depnum_ccdc_archive 'CCDC 1401393'
_chemical_formula_sum 'C34 H16'
_chemical_formula_moiety
;
C34 H16
;
_journal_coden_Cambridge 1695
_journal_volume 3
_journal_year 2015
_journal_page_first 7583
_journal_name_full 'J.Mater.Chem.C '
loop_
_publ_author_name
"Tien-Lin Wu"
"Chi-Hsien Kuo"
"Bo-Chao Lin"
"Yu-Tai Tao"
"Chao-Ping Hsu"
"Rai-Shung Liu"
_chemical_name_systematic
;
benzo[lm]chryseno[1,12,11,10-opqrab]perylene
;
_cell_volume    922.788
_exptl_crystal_colour 'red'
_exptl_crystal_density_diffrn 1.528
_exptl_crystal_description 'needle'
_diffrn_ambient_temperature 100
#These two values have been output from a single CSD field.
_refine_ls_R_factor_gt 0.0483
_refine_ls_wR_factor_gt 0.0483
_symmetry_cell_setting monoclinic
_symmetry_space_group_name_H-M 'P 21/c'
_symmetry_Int_Tables_number 14
loop_
_symmetry_equiv_pos_site_id
_symmetry_equiv_pos_as_xyz
1 x,y,z
2 -x,1/2+y,1/2-z
3 -x,-y,-z
4 x,-1/2-y,-1/2+z
_cell_length_a 11.5659(4)
_cell_length_b 5.1330(1)
_cell_length_c 15.5436(5)
_cell_angle_alpha 90
_cell_angle_beta 90.063(2)
_cell_angle_gamma 90
_cell_formula_units_Z 2
loop_
_atom_type_symbol
_atom_type_radius_bond
C 0.68
H 0.23
loop_
_atom_site_label
_atom_site_type_symbol
_atom_site_fract_x
_atom_site_fract_y
_atom_site_fract_z
C1 C 0.87244(14) -0.3453(3) -0.07349(11)
C2 C 0.77963(15) -0.5008(3) -0.10231(11)
H1 H 0.79320 -0.63290 -0.14390
C3 C 0.66991(15) -0.4634(4) -0.07099(12)
H2 H 0.60790 -0.56670 -0.09210
C4 C 0.64918(15) -0.2751(3) -0.00860(12)
H3 H 0.57300 -0.25240 0.01290
C5 C 0.73821(15) -0.1192(3) 0.02285(11)
C6 C 0.71664(15) 0.0756(3) 0.09045(11)
C7 C 0.61008(15) 0.1030(4) 0.12984(12)
H4 H 0.54840 -0.00910 0.11360
C8 C 0.59126(16) 0.2930(4) 0.19327(12)
H5 H 0.51740 0.30730 0.21960
C9 C 0.67830(16) 0.4574(4) 0.21738(12)
H6 H 0.66460 0.58620 0.26010
C10 C 0.78817(15) 0.4367(3) 0.17927(11)
C11 C 0.87892(15) 0.6073(3) 0.20244(11)
H7 H 0.86470 0.74260 0.24280
C12 C 0.98658(15) 0.5809(3) 0.16781(11)
H8 H 1.04600 0.69830 0.18450
C13 C 1.01156(14) 0.3817(3) 0.10744(11)
C14 C 0.92247(14) 0.2147(3) 0.08016(10)
C15 C 0.94478(14) 0.0163(3) 0.01735(10)
C16 C 0.85107(14) -0.1494(3) -0.01124(10)
C17 C 0.80898(14) 0.2411(3) 0.11617(10)
C1B C 1.12756(14) 0.3453(3) 0.07349(11)
C2B C 1.22037(15) 0.5008(3) 0.10231(11)
H1B H 1.20680 0.63290 0.14390
C3B C 1.33009(15) 0.4634(4) 0.07099(12)
H2B H 1.39210 0.56670 0.09210
C4B C 1.35082(15) 0.2751(3) 0.00860(12)
H3B H 1.42700 0.25240 -0.01290
C5B C 1.26179(15) 0.1192(3) -0.02285(11)
C6B C 1.28336(15) -0.0756(3) -0.09045(11)
C7B C 1.38992(15) -0.1030(4) -0.12984(12)
H4B H 1.45160 0.00910 -0.11360
C8B C 1.40874(16) -0.2930(4) -0.19327(12)
H5B H 1.48260 -0.30730 -0.21960
C9B C 1.32170(16) -0.4574(4) -0.21738(12)
H6B H 1.33540 -0.58620 -0.26010
C10B C 1.21183(15) -0.4367(3) -0.17927(11)
C11B C 1.12108(15) -0.6073(3) -0.20244(11)
H7B H 1.13530 -0.74260 -0.24280
C12B C 1.01342(15) -0.5809(3) -0.16781(11)
H8B H 0.95400 -0.69830 -0.18450
C13B C 0.98844(14) -0.3817(3) -0.10744(11)
C14B C 1.07753(14) -0.2147(3) -0.08016(10)
C15B C 1.05522(14) -0.0163(3) -0.01735(10)
C16B C 1.14893(14) 0.1494(3) 0.01124(10)
C17B C 1.19102(14) -0.2411(3) -0.11617(10)
loop_
_geom_bond_atom_site_label_1
_geom_bond_atom_site_label_2
_geom_bond_distance
_geom_bond_site_symmetry_1
_geom_bond_site_symmetry_2
C1 C2 1.410 1_555 1_555
C2 H1 0.950 1_555 1_555
C3 C2 1.373 1_555 1_555
H2 C3 0.950 1_555 1_555
C4 C3 1.390 1_555 1_555
H3 C4 0.950 1_555 1_555
C5 C4 1.392 1_555 1_555
C6 C5 1.472 1_555 1_555
C7 C6 1.384 1_555 1_555
H4 C7 0.950 1_555 1_555
C8 C7 1.404 1_555 1_555
H5 C8 0.950 1_555 1_555
C9 C8 1.366 1_555 1_555
H6 C9 0.950 1_555 1_555
C10 C9 1.407 1_555 1_555
C11 C10 1.413 1_555 1_555
H7 C11 0.950 1_555 1_555
C12 C11 1.364 1_555 1_555
H8 C12 0.950 1_555 1_555
C13 C12 1.418 1_555 1_555
C14 C13 1.405 1_555 1_555
C15 C14 1.434 1_555 1_555
C16 C1 1.417 1_555 1_555
C17 C6 1.422 1_555 1_555
C1B C13 1.454 1_555 1_555
C2B C1B 1.410 1_555 1_555
H1B C2B 0.950 1_555 1_555
C3B C2B 1.373 1_555 1_555
H2B C3B 0.950 1_555 1_555
C4B C3B 1.390 1_555 1_555
H3B C4B 0.950 1_555 1_555
C5B C4B 1.392 1_555 1_555
C6B C5B 1.472 1_555 1_555
C7B C6B 1.384 1_555 1_555
H4B C7B 0.950 1_555 1_555
C8B C7B 1.404 1_555 1_555
H5B C8B 0.950 1_555 1_555
C9B C8B 1.366 1_555 1_555
H6B C9B 0.950 1_555 1_555
C10B C9B 1.407 1_555 1_555
C11B C10B 1.413 1_555 1_555
H7B C11B 0.950 1_555 1_555
C12B C11B 1.364 1_555 1_555
H8B C12B 0.950 1_555 1_555
C13B C1 1.454 1_555 1_555
C14B C13B 1.405 1_555 1_555
C15B C15 1.397 1_555 1_555
C16B C1B 1.417 1_555 1_555
C17B C6B 1.422 1_555 1_555
C5 C16 1.418 1_555 1_555
C10 C17 1.424 1_555 1_555
C14 C17 1.434 1_555 1_555
C15 C16 1.447 1_555 1_555
C5B C16B 1.418 1_555 1_555
C10B C17B 1.424 1_555 1_555
C12B C13B 1.418 1_555 1_555
C14B C15B 1.434 1_555 1_555
C14B C17B 1.434 1_555 1_555
C15B C16B 1.447 1_555 1_555
#END
