
#######################################################################
#
#                 Cambridge Crystallographic Data Centre
#                                CCDC
#
#######################################################################
#
# If this CIF has been generated from an entry in the Cambridge
# Structural Database, then it will include bibliographic, chemical,
# crystal, experimental, refinement or atomic coordinate data resulting
# from the CCDC's data processing and validation procedures.
#
#######################################################################

data_CSD_CIF_YUXJIL
_audit_creation_date 2010-08-24
_audit_creation_method CSD-ConQuest-V1
_database_code_CSD YUXJIL
_database_code_depnum_ccdc_archive 'CCDC 774042'
_chemical_formula_sum 'C26 H34'
_chemical_formula_moiety
;
C26 H34
;
_journal_coden_Cambridge 182
_journal_volume 46
_journal_year 2010
_journal_page_first 5166
_journal_name_full 'Chem.Commun. '
loop_
_publ_author_name
"K.A.Williams"
"C.W.Bielawski"
_chemical_name_systematic
;
9,10-Dihexylanthracene
;
_chemical_melting_point 340.15
_cell_volume    999.181
_exptl_crystal_colour 'yellow'
_exptl_crystal_density_diffrn 1.152
_exptl_special_details
;
Melting point range 340.15-342.15K

;
_exptl_crystal_description 'prisms'
_exptl_crystal_preparation 'deuterochloroform'
_diffrn_ambient_temperature 153
#These two values have been output from a single CSD field.
_refine_ls_R_factor_gt 0.0443
_refine_ls_wR_factor_gt 0.0443
_symmetry_cell_setting monoclinic
_symmetry_space_group_name_H-M 'P 21/n'
_symmetry_Int_Tables_number 14
loop_
_symmetry_equiv_pos_site_id
_symmetry_equiv_pos_as_xyz
1 x,y,z
2 1/2-x,1/2+y,1/2-z
3 -x,-y,-z
4 -1/2+x,-1/2-y,-1/2+z
_cell_length_a 7.8785(5)
_cell_length_b 17.1725(9)
_cell_length_c 8.2929(6)
_cell_angle_alpha 90
_cell_angle_beta 117.057(2)
_cell_angle_gamma 90
_cell_formula_units_Z 2
loop_
_atom_type_symbol
_atom_type_radius_bond
C 0.68
H 0.23
loop_
_atom_site_label
_atom_site_type_symbol
_atom_site_fract_x
_atom_site_fract_y
_atom_site_fract_z
C1 C 0.58401(16) 0.53760(6) 0.67055(14)
C2 C 0.45037(15) 0.57818(6) 0.51104(15)
C3 C 0.41010(17) 0.65832(7) 0.52980(16)
C4 C 0.49060(18) 0.69513(7) 0.69291(16)
C5 C 0.61521(18) 0.65418(7) 0.85099(16)
C6 C 0.65985(17) 0.57843(7) 0.84015(15)
C7 C 0.63542(15) 0.45992(7) 0.65829(15)
C8 C 0.77758(17) 0.41736(7) 0.82499(15)
C9 C 0.68389(17) 0.37093(7) 0.92114(15)
C10 C 0.82822(18) 0.33353(7) 1.09792(15)
C11 C 0.91697(17) 0.39002(7) 1.25657(15)
C12 C 1.05828(18) 0.35001(7) 1.43016(16)
C13 C 1.1365(2) 0.40348(9) 1.59461(17)
H1 H 0.812(2) 0.4140(8) 1.2775(18)
H2 H 0.597(2) 0.4055(8) 0.9453(18)
H3 H 0.873(2) 0.4539(8) 0.9112(19)
H4 H 0.462(2) 0.7491(9) 0.7026(19)
H5 H 0.742(2) 0.5508(8) 0.951(2)
H6 H 0.764(2) 0.2920(9) 1.1348(18)
H7 H 0.324(2) 0.6872(9) 0.422(2)
H8 H 0.600(2) 0.3304(9) 0.8368(19)
H9 H 1.164(2) 0.3287(8) 1.4112(18)
H10 H 0.931(2) 0.3100(9) 1.0774(18)
H11 H 0.853(2) 0.3811(8) 0.7914(18)
H12 H 0.666(2) 0.6791(9) 0.968(2)
H13 H 0.991(2) 0.3057(9) 1.4533(19)
H14 H 1.204(2) 0.4475(9) 1.575(2)
H15 H 0.9834(18) 0.4340(9) 1.2250(18)
H16 H 1.031(2) 0.4245(10) 1.618(2)
H17 H 1.226(3) 0.3761(10) 1.708(2)
C1B C 0.41599(16) 0.46240(6) 0.32945(14)
C2B C 0.54963(15) 0.42182(6) 0.48896(15)
C3B C 0.58990(17) 0.34168(7) 0.47020(16)
C4B C 0.50940(18) 0.30487(7) 0.30709(16)
C5B C 0.38479(18) 0.34582(7) 0.14901(16)
C6B C 0.34015(17) 0.42157(7) 0.15985(15)
C7B C 0.36458(15) 0.54008(7) 0.34171(15)
C8B C 0.22242(17) 0.58264(7) 0.17501(15)
C9B C 0.31611(17) 0.62907(7) 0.07886(15)
C10B C 0.17178(18) 0.66647(7) -0.09792(15)
C11B C 0.08303(17) 0.60998(7) -0.25657(15)
C12B C -0.05828(18) 0.64999(7) -0.43016(16)
C13B C -0.1365(2) 0.59652(9) -0.59461(17)
H1B H 0.188(2) 0.5860(8) -0.2775(18)
H2B H 0.403(2) 0.5945(8) 0.0547(18)
H3B H 0.127(2) 0.5461(8) 0.0888(19)
H4B H 0.538(2) 0.2509(9) 0.2974(19)
H5B H 0.258(2) 0.4492(8) 0.049(2)
H6B H 0.236(2) 0.7080(9) -0.1348(18)
H7B H 0.676(2) 0.3128(9) 0.578(2)
H8B H 0.400(2) 0.6696(9) 0.1632(19)
H9B H -0.164(2) 0.6713(8) -0.4112(18)
H10B H 0.069(2) 0.6900(9) -0.0774(18)
H11B H 0.147(2) 0.6189(8) 0.2086(18)
H12B H 0.334(2) 0.3209(9) 0.032(2)
H13B H 0.009(2) 0.6943(9) -0.4533(19)
H14B H -0.204(2) 0.5525(9) -0.575(2)
H15B H 0.0166(18) 0.5660(9) -0.2250(18)
H16B H -0.031(2) 0.5755(10) -0.618(2)
H17B H -0.226(3) 0.6239(10) -0.708(2)
loop_
_geom_bond_atom_site_label_1
_geom_bond_atom_site_label_2
_geom_bond_distance
_geom_bond_site_symmetry_1
_geom_bond_site_symmetry_2
C1 C2 1.441 1_555 1_555
C2 C3 1.437 1_555 1_555
C3 C4 1.361 1_555 1_555
C4 C5 1.416 1_555 1_555
C5 C6 1.361 1_555 1_555
C6 C1 1.436 1_555 1_555
C7 C1 1.411 1_555 1_555
C8 C7 1.514 1_555 1_555
C9 C8 1.534 1_555 1_555
C10 C9 1.529 1_555 1_555
C11 C10 1.524 1_555 1_555
C12 C11 1.525 1_555 1_555
C13 C12 1.523 1_555 1_555
H1 C11 1.007 1_555 1_555
H2 C9 0.993 1_555 1_555
H3 C8 0.990 1_555 1_555
H4 C4 0.966 1_555 1_555
H5 C6 0.974 1_555 1_555
H6 C10 0.999 1_555 1_555
H7 C3 0.977 1_555 1_555
H8 C9 0.995 1_555 1_555
H9 C12 0.986 1_555 1_555
H10 C10 0.987 1_555 1_555
H11 C8 0.984 1_555 1_555
H12 C5 0.965 1_555 1_555
H13 C12 0.995 1_555 1_555
H14 C13 0.979 1_555 1_555
H15 C11 1.019 1_555 1_555
H16 C13 1.003 1_555 1_555
H17 C13 1.000 1_555 1_555
C1B C2B 1.441 1_555 1_555
C2B C7 1.412 1_555 1_555
C3B C2B 1.437 1_555 1_555
C4B C3B 1.361 1_555 1_555
C5B C4B 1.416 1_555 1_555
C6B C1B 1.436 1_555 1_555
C7B C2 1.412 1_555 1_555
C8B C7B 1.514 1_555 1_555
C9B C8B 1.534 1_555 1_555
C10B C9B 1.529 1_555 1_555
C11B C10B 1.524 1_555 1_555
C12B C11B 1.525 1_555 1_555
C13B C12B 1.523 1_555 1_555
H1B C11B 1.007 1_555 1_555
H2B C9B 0.993 1_555 1_555
H3B C8B 0.990 1_555 1_555
H4B C4B 0.966 1_555 1_555
H5B C6B 0.974 1_555 1_555
H6B C10B 0.999 1_555 1_555
H7B C3B 0.977 1_555 1_555
H8B C9B 0.995 1_555 1_555
H9B C12B 0.986 1_555 1_555
H10B C10B 0.987 1_555 1_555
H11B C8B 0.984 1_555 1_555
H12B C5B 0.965 1_555 1_555
H13B C12B 0.995 1_555 1_555
H14B C13B 0.979 1_555 1_555
H15B C11B 1.019 1_555 1_555
H16B C13B 1.003 1_555 1_555
H17B C13B 1.000 1_555 1_555
C1B C7B 1.411 1_555 1_555
C5B C6B 1.361 1_555 1_555
#END
