
#######################################################################
#
#                 Cambridge Crystallographic Data Centre
#                                CCDC
#
#######################################################################
#
# If this CIF has been generated from an entry in the Cambridge
# Structural Database, then it will include bibliographic, chemical,
# crystal, experimental, refinement or atomic coordinate data resulting
# from the CCDC's data processing and validation procedures.
#
#######################################################################

data_CSD_CIF_YUZZUQ
_audit_creation_date 2015-11-10
_audit_creation_method CSD-ConQuest-V1
_database_code_CSD YUZZUQ
_database_code_depnum_ccdc_archive 'CCDC 1025083'
_chemical_formula_sum 'C28 H18'
_chemical_formula_moiety
;
C28 H18
;
_journal_coden_Cambridge 35
_journal_volume 80
_journal_year 2015
_journal_page_first 10973
_journal_name_full 'J.Org.Chem. '
loop_
_publ_author_name
"Xing Feng"
"H.Tomiyasu"
"Jian-Yong Hu"
"Xianfu Wei"
"C.Redshaw"
"M.R.J.Elsegood"
"L.Horsburgh"
"S.J.Teat"
"T.Yamato"
_chemical_name_systematic
;
1,3-diphenylpyrene
;
_chemical_melting_point 459
_cell_volume   2753.161
_exptl_crystal_colour 'colorless'
_exptl_crystal_density_diffrn 1.283
_exptl_crystal_description 'block'
_exptl_crystal_preparation 'dichloromethane/acetone'
_diffrn_ambient_temperature 100
#These two values have been output from a single CSD field.
_refine_ls_R_factor_gt 0.0446
_refine_ls_wR_factor_gt 0.0446
_symmetry_cell_setting triclinic
_symmetry_space_group_name_H-M 'P -1'
_symmetry_Int_Tables_number 2
loop_
_symmetry_equiv_pos_site_id
_symmetry_equiv_pos_as_xyz
1 x,y,z
2 -x,-y,-z
_cell_length_a 13.1052(5)
_cell_length_b 13.4575(4)
_cell_length_c 16.6219(5)
_cell_angle_alpha 102.829(3)
_cell_angle_beta 92.996(3)
_cell_angle_gamma 104.207(3)
_cell_formula_units_Z 6
loop_
_atom_type_symbol
_atom_type_radius_bond
C 0.68
H 0.23
loop_
_atom_site_label
_atom_site_type_symbol
_atom_site_fract_x
_atom_site_fract_y
_atom_site_fract_z
C1 C 0.01939(10) 0.87280(11) 0.73883(8)
C2 C -0.0042(1) 0.95622(11) 0.70757(9)
C3 C 0.01722(11) 1.06018(11) 0.75925(9)
C4 C -0.00863(12) 1.14013(12) 0.72756(10)
H1 H 0.0063(13) 1.2124(14) 0.7643(10)
C5 C -0.05231(12) 1.12001(12) 0.64596(10)
H2 H -0.0725(15) 1.1783(15) 0.6259(11)
C6 C -0.07118(12) 1.01976(12) 0.59418(10)
H3 H -0.1029(14) 1.0049(14) 0.5334(11)
C7 C -0.04895(11) 0.93675(12) 0.62333(9)
C8 C -0.06763(11) 0.83245(12) 0.57156(9)
H4 H -0.0974(14) 0.8194(13) 0.5114(11)
C9 C -0.04864(11) 0.75244(12) 0.60175(9)
H5 H -0.0627(13) 0.6809(13) 0.5639(10)
C10 C -0.00582(10) 0.76837(11) 0.68641(8)
C11 C 0.0173(1) 0.68646(11) 0.71793(8)
C12 C 0.06905(11) 0.71049(11) 0.79830(8)
H6 H 0.0847(12) 0.6527(12) 0.8205(9)
C13 C 0.09673(10) 0.81226(11) 0.85011(8)
C14 C 0.0704(1) 0.89510(11) 0.82137(8)
C15 C 0.09563(11) 1.00226(11) 0.87054(9)
H7 H 0.1336(13) 1.0169(13) 0.9247(11)
C16 C 0.06886(11) 1.08001(11) 0.84170(9)
H8 H 0.0862(14) 1.1528(14) 0.8774(11)
C17 C -0.00829(10) 0.57514(11) 0.66810(8)
C18 C -0.10950(11) 0.52410(11) 0.62643(9)
H9 H -0.1628(13) 0.5652(12) 0.6295(9)
C19 C -0.13210(12) 0.42040(12) 0.57983(9)
H10 H -0.2052(13) 0.3833(13) 0.550(1)
C20 C -0.05466(12) 0.36570(12) 0.57435(9)
H11 H -0.0704(13) 0.2905(14) 0.5412(10)
C21 C 0.04571(12) 0.41471(12) 0.61650(9)
H12 H 0.1009(15) 0.3753(14) 0.6142(11)
C22 C 0.06832(11) 0.51850(12) 0.66306(9)
H13 H 0.1409(13) 0.5537(12) 0.6943(9)
C23 C 0.15550(11) 0.82793(10) 0.93296(8)
C24 C 0.24674(11) 0.79233(11) 0.93802(9)
H14 H 0.2725(12) 0.7588(12) 0.8856(10)
C25 C 0.30280(12) 0.80336(12) 1.01396(9)
H15 H 0.3659(13) 0.7789(12) 1.0181(9)
C26 C 0.26782(12) 0.85032(12) 1.08688(9)
H16 H 0.3106(13) 0.8555(12) 1.1386(10)
C27 C 0.17649(12) 0.88451(12) 1.08292(9)
H17 H 0.1503(13) 0.9154(13) 1.1353(10)
C28 C 0.12049(12) 0.87358(11) 1.00690(9)
H18 H 0.0530(14) 0.8988(13) 1.0056(10)
C29 C 0.46697(10) 0.68714(11) 0.82520(9)
C30 C 0.52699(11) 0.73766(11) 0.90411(9)
C31 C 0.55965(11) 0.67688(12) 0.95580(9)
C32 C 0.61464(13) 0.72761(14) 1.03392(10)
H19 H 0.6388(13) 0.6858(13) 1.0674(10)
C33 C 0.63936(13) 0.83700(15) 1.06182(10)
H20 H 0.6791(14) 0.8745(14) 1.1185(11)
C34 C 0.61160(12) 0.89739(14) 1.01096(10)
H21 H 0.6306(14) 0.9754(15) 1.0321(11)
C35 C 0.55519(11) 0.84991(12) 0.93260(9)
C36 C 0.52389(12) 0.90960(12) 0.87911(10)
H22 H 0.5428(15) 0.9858(15) 0.8985(11)
C37 C 0.46788(11) 0.86287(11) 0.80416(10)
H23 H 0.4466(14) 0.9051(14) 0.7682(11)
C38 C 0.43584(10) 0.74946(11) 0.77403(9)
C39 C 0.37724(10) 0.69898(11) 0.69640(9)
C40 C 0.34956(11) 0.58887(11) 0.67098(9)
H24 H 0.3043(13) 0.5514(13) 0.6155(10)
C41 C 0.37629(10) 0.52567(11) 0.72093(9)
C42 C 0.43864(10) 0.57445(11) 0.79772(8)
C43 C 0.47914(11) 0.51633(12) 0.84920(9)
H25 H 0.4669(13) 0.4382(14) 0.8266(10)
C44 C 0.53666(11) 0.56447(12) 0.92342(9)
H26 H 0.5667(12) 0.5253(12) 0.9567(9)
C45 C 0.34314(10) 0.76073(11) 0.64022(9)
C46 C 0.27190(12) 0.82153(12) 0.66357(10)
H27 H 0.2488(15) 0.8274(14) 0.7202(12)
C47 C 0.24122(12) 0.87900(12) 0.61135(11)
H28 H 0.1926(15) 0.9234(15) 0.6319(11)
C48 C 0.28152(12) 0.87809(11) 0.53576(10)
H29 H 0.2594(13) 0.9209(13) 0.4968(10)
C49 C 0.35144(12) 0.81752(12) 0.51163(9)
H30 H 0.3792(15) 0.8176(14) 0.4550(12)
C50 C 0.38083(11) 0.75880(11) 0.56350(9)
H31 H 0.4285(13) 0.7134(13) 0.5448(10)
C51 C 0.33584(10) 0.40870(11) 0.69150(9)
C52 C 0.33869(11) 0.35745(11) 0.60956(9)
H32 H 0.3706(13) 0.3984(13) 0.5703(10)
C53 C 0.29951(12) 0.24840(12) 0.58152(10)
H33 H 0.3041(14) 0.2135(15) 0.5224(12)
C54 C 0.25608(12) 0.18871(12) 0.63595(11)
H34 H 0.2281(15) 0.1105(16) 0.6151(12)
C55 C 0.25202(11) 0.23826(12) 0.7173(1)
H35 H 0.2217(14) 0.1937(14) 0.7566(11)
C56 C 0.29041(11) 0.34698(11) 0.74512(10)
H36 H 0.2851(13) 0.3839(13) 0.8027(11)
C57 C 0.71851(10) 0.57868(10) 0.77734(8)
C58 C 0.70396(10) 0.65903(10) 0.73756(8)
C59 C 0.74383(10) 0.76768(11) 0.77876(9)
C60 C 0.72820(11) 0.84467(11) 0.73859(9)
H37 H 0.7555(13) 0.9188(14) 0.7684(10)
C61 C 0.67473(12) 0.81608(11) 0.65915(9)
H38 H 0.6646(13) 0.8741(13) 0.6329(10)
C62 C 0.63571(11) 0.71065(11) 0.61861(9)
H39 H 0.5969(14) 0.6887(13) 0.5631(11)
C63 C 0.64874(10) 0.63091(11) 0.65622(8)
C64 C 0.60904(10) 0.52127(11) 0.61543(9)
H40 H 0.5715(13) 0.5014(13) 0.5569(10)
C65 C 0.62128(10) 0.44495(11) 0.65296(9)
H41 H 0.5937(13) 0.3701(13) 0.6219(10)
C66 C 0.67541(10) 0.47033(10) 0.73535(8)
C67 C 0.68883(10) 0.3916(1) 0.77553(9)
C68 C 0.74366(11) 0.42171(11) 0.85453(9)
H42 H 0.7517(13) 0.3661(13) 0.8822(10)
C69 C 0.78741(10) 0.52717(11) 0.89694(8)
C70 C 0.77508(10) 0.60785(10) 0.85831(8)
C71 C 0.81265(11) 0.71869(11) 0.89859(9)
H43 H 0.8499(12) 0.7404(12) 0.9552(10)
C72 C 0.79803(11) 0.79420(11) 0.86090(9)
H44 H 0.8227(13) 0.8690(14) 0.8911(10)
C73 C 0.64680(11) 0.27655(10) 0.73552(8)
C74 C 0.53839(12) 0.22890(12) 0.71879(11)
H45 H 0.4877(15) 0.2742(15) 0.7303(11)
C75 C 0.50079(12) 0.12090(12) 0.68552(11)
H46 H 0.4223(17) 0.0871(16) 0.6718(13)
C76 C 0.57068(12) 0.05872(11) 0.66810(9)
H47 H 0.5426(13) -0.0181(14) 0.6435(10)
C77 C 0.67875(12) 0.10532(11) 0.68366(9)
H48 H 0.7308(13) 0.0593(13) 0.6707(10)
C78 C 0.71661(11) 0.21340(11) 0.71707(8)
H49 H 0.7966(13) 0.2462(12) 0.7305(9)
C79 C 0.84334(11) 0.54832(10) 0.98163(9)
C80 C 0.79536(12) 0.49679(11) 1.03974(9)
H50 H 0.7230(13) 0.4512(12) 1.0250(9)
C81 C 0.84867(12) 0.50954(12) 1.11715(9)
H51 H 0.8141(13) 0.4737(13) 1.1585(10)
C82 C 0.95129(13) 0.57386(12) 1.13854(9)
H52 H 0.9898(13) 0.5793(13) 1.1931(11)
C83 C 0.99970(12) 0.62588(12) 1.08148(10)
H53 H 1.0731(14) 0.6711(13) 1.0976(10)
C84 C 0.94664(11) 0.61353(11) 1.00390(9)
H54 H 0.9839(13) 0.6480(13) 0.9617(10)
loop_
_geom_bond_atom_site_label_1
_geom_bond_atom_site_label_2
_geom_bond_distance
_geom_bond_site_symmetry_1
_geom_bond_site_symmetry_2
C1 C2 1.428 1_555 1_555
C2 C3 1.422 1_555 1_555
C3 C4 1.401 1_555 1_555
C4 H1 0.994 1_555 1_555
C5 C4 1.386 1_555 1_555
H2 C5 1.003 1_555 1_555
C6 C5 1.386 1_555 1_555
H3 C6 1.029 1_555 1_555
C7 C2 1.431 1_555 1_555
C8 C7 1.430 1_555 1_555
H4 C8 1.015 1_555 1_555
C9 C8 1.353 1_555 1_555
H5 C9 0.994 1_555 1_555
C10 C1 1.429 1_555 1_555
C11 C10 1.409 1_555 1_555
C12 C11 1.398 1_555 1_555
H6 C12 0.990 1_555 1_555
C13 C12 1.396 1_555 1_555
C14 C1 1.429 1_555 1_555
C15 C14 1.439 1_555 1_555
H7 C15 0.961 1_555 1_555
C16 C3 1.435 1_555 1_555
H8 C16 0.991 1_555 1_555
C17 C11 1.489 1_555 1_555
C18 C17 1.399 1_555 1_555
H9 C18 0.989 1_555 1_555
C19 C18 1.389 1_555 1_555
H10 C19 1.009 1_555 1_555
C20 C19 1.388 1_555 1_555
H11 C20 1.004 1_555 1_555
C21 C20 1.389 1_555 1_555
H12 C21 0.994 1_555 1_555
C22 C17 1.397 1_555 1_555
H13 C22 1.008 1_555 1_555
C23 C13 1.488 1_555 1_555
C24 C23 1.398 1_555 1_555
H14 C24 1.004 1_555 1_555
C25 C24 1.386 1_555 1_555
H15 C25 0.967 1_555 1_555
C26 C25 1.392 1_555 1_555
H16 C26 0.981 1_555 1_555
C27 C26 1.387 1_555 1_555
H17 C27 0.995 1_555 1_555
C28 C23 1.400 1_555 1_555
H18 C28 1.023 1_555 1_555
C29 C30 1.427 1_555 1_555
C30 C31 1.427 1_555 1_555
C31 C32 1.392 1_555 1_555
C32 H19 0.967 1_555 1_555
C33 C32 1.391 1_555 1_555
H20 C33 1.011 1_555 1_555
C34 C33 1.388 1_555 1_555
H21 C34 0.993 1_555 1_555
C35 C30 1.426 1_555 1_555
C36 C35 1.430 1_555 1_555
H22 C36 0.968 1_555 1_555
C37 C36 1.348 1_555 1_555
H23 C37 0.985 1_555 1_555
C38 C29 1.429 1_555 1_555
C39 C38 1.403 1_555 1_555
C40 C39 1.396 1_555 1_555
H24 C40 1.023 1_555 1_555
C41 C40 1.402 1_555 1_555
C42 C29 1.430 1_555 1_555
C43 C42 1.442 1_555 1_555
H25 C43 1.004 1_555 1_555
C44 C31 1.438 1_555 1_555
H26 C44 0.973 1_555 1_555
C45 C39 1.499 1_555 1_555
C46 C45 1.401 1_555 1_555
H27 C46 0.996 1_555 1_555
C47 C46 1.388 1_555 1_555
H28 C47 0.999 1_555 1_555
C48 C47 1.387 1_555 1_555
H29 C48 1.031 1_555 1_555
C49 C48 1.387 1_555 1_555
H30 C49 1.027 1_555 1_555
C50 C45 1.389 1_555 1_555
H31 C50 0.992 1_555 1_555
C51 C41 1.490 1_555 1_555
C52 C51 1.390 1_555 1_555
H32 C52 0.990 1_555 1_555
C53 C52 1.391 1_555 1_555
H33 C53 1.002 1_555 1_555
C54 C53 1.393 1_555 1_555
H34 C54 0.999 1_555 1_555
C55 C54 1.379 1_555 1_555
H35 C55 1.014 1_555 1_555
C56 C51 1.407 1_555 1_555
H36 C56 0.990 1_555 1_555
C57 C58 1.431 1_555 1_555
C58 C59 1.422 1_555 1_555
C59 C60 1.399 1_555 1_555
C60 H37 0.977 1_555 1_555
C61 C60 1.389 1_555 1_555
H38 C61 1.007 1_555 1_555
C62 C61 1.383 1_555 1_555
H39 C62 0.976 1_555 1_555
C63 C58 1.425 1_555 1_555
C64 C63 1.432 1_555 1_555
H40 C64 1.015 1_555 1_555
C65 C64 1.351 1_555 1_555
H41 C65 0.991 1_555 1_555
C66 C57 1.426 1_555 1_555
C67 C66 1.412 1_555 1_555
C68 C67 1.388 1_555 1_555
H42 C68 0.984 1_555 1_555
C69 C68 1.398 1_555 1_555
C70 C57 1.426 1_555 1_555
C71 C70 1.441 1_555 1_555
H43 C71 0.984 1_555 1_555
C72 C59 1.433 1_555 1_555
H44 C72 0.984 1_555 1_555
C73 C67 1.493 1_555 1_555
C74 C73 1.393 1_555 1_555
H45 C74 1.005 1_555 1_555
C75 C74 1.387 1_555 1_555
H46 C75 1.008 1_555 1_555
C76 C75 1.385 1_555 1_555
H47 C76 0.991 1_555 1_555
C77 C76 1.386 1_555 1_555
H48 C77 1.029 1_555 1_555
C78 C73 1.396 1_555 1_555
H49 C78 1.024 1_555 1_555
C79 C69 1.487 1_555 1_555
C80 C79 1.399 1_555 1_555
H50 C80 0.979 1_555 1_555
C81 C80 1.386 1_555 1_555
H51 C81 0.991 1_555 1_555
C82 C81 1.388 1_555 1_555
H52 C82 0.994 1_555 1_555
C83 C82 1.390 1_555 1_555
H53 C83 0.990 1_555 1_555
C84 C79 1.400 1_555 1_555
H54 C84 1.007 1_555 1_555
C6 C7 1.397 1_555 1_555
C9 C10 1.437 1_555 1_555
C13 C14 1.414 1_555 1_555
C15 C16 1.354 1_555 1_555
C21 C22 1.389 1_555 1_555
C27 C28 1.387 1_555 1_555
C34 C35 1.396 1_555 1_555
C37 C38 1.442 1_555 1_555
C41 C42 1.408 1_555 1_555
C43 C44 1.348 1_555 1_555
C49 C50 1.390 1_555 1_555
C55 C56 1.386 1_555 1_555
C62 C63 1.396 1_555 1_555
C65 C66 1.438 1_555 1_555
C69 C70 1.415 1_555 1_555
C71 C72 1.352 1_555 1_555
C77 C78 1.389 1_555 1_555
C83 C84 1.389 1_555 1_555
#END
