
#######################################################################
#
#                 Cambridge Crystallographic Data Centre
#                                CCDC
#
#######################################################################
#
# If this CIF has been generated from an entry in the Cambridge
# Structural Database, then it will include bibliographic, chemical,
# crystal, experimental, refinement or atomic coordinate data resulting
# from the CCDC's data processing and validation procedures.
#
#######################################################################

data_CSD_CIF_ZAKJAZ
_audit_creation_date 2017-02-13
_audit_creation_method CSD-ConQuest-V1
_database_code_CSD ZAKJAZ
_database_code_depnum_ccdc_archive 'CCDC 827589'
_chemical_formula_sum 'C20 H28'
_chemical_formula_moiety
;
C20 H28
;
_journal_coden_Cambridge 1048
_journal_volume 14
_journal_year 2012
_journal_page_first 1103
_journal_name_full 'Green Chemistry '
loop_
_publ_author_name
"K.Smith"
"A.K.H.Al-Khalaf"
"G.A.El-HitI"
"S.Pattisson"
_chemical_name_systematic
;
2,6-bis(2-methylbutan-2-yl)naphthalene
;
_cell_volume    842.971
_diffrn_ambient_temperature 150
#These two values have been output from a single CSD field.
_refine_ls_R_factor_gt 0.11
_refine_ls_wR_factor_gt 0.11
_symmetry_cell_setting monoclinic
_symmetry_space_group_name_H-M 'P 21/n'
_symmetry_Int_Tables_number 14
loop_
_symmetry_equiv_pos_site_id
_symmetry_equiv_pos_as_xyz
1 x,y,z
2 1/2-x,1/2+y,1/2-z
3 -x,-y,-z
4 -1/2+x,-1/2-y,-1/2+z
_cell_length_a 6.7860(18)
_cell_length_b 12.584(2)
_cell_length_c 9.896(3)
_cell_angle_alpha 90
_cell_angle_beta 94.038(8)
_cell_angle_gamma 90
_cell_formula_units_Z 2
loop_
_atom_type_symbol
_atom_type_radius_bond
C 0.68
H 0.23
loop_
_atom_site_label
_atom_site_type_symbol
_atom_site_fract_x
_atom_site_fract_y
_atom_site_fract_z
C1 C 0.9033(9) 1.0139(5) 0.0106(6)
C2 C 0.8052(11) 0.9724(6) 0.1147(8)
H1 H 0.67260 0.99240 0.12680
C3 C 0.9018(11) 0.9017(5) 0.2009(8)
H2 H 0.83340 0.87400 0.27360
C4 C 1.0988(11) 0.8675(5) 0.1876(7)
C5 C 1.1932(11) 0.9076(5) 0.0847(7)
H3 H 1.32450 0.88540 0.07250
C6 C 1.1888(10) 0.7853(5) 0.2867(7)
C7 C 1.4039(14) 0.7692(11) 0.2729(13)
H4 H 1.42290 0.73110 0.18850
H5 H 1.46040 0.72760 0.34990
H6 H 1.47000 0.83840 0.27130
C8 C 1.0747(17) 0.6803(7) 0.2673(14)
H7 H 0.93400 0.69290 0.27780
H8 H 1.12560 0.62870 0.33530
H9 H 1.09160 0.65230 0.17650
C9 C 1.1610(15) 0.8201(7) 0.4350(9)
H10 H 1.01780 0.81950 0.44840
H11 H 1.22380 0.76590 0.49640
C10 C 1.2407(19) 0.9259(7) 0.4779(11)
H12 H 1.37850 0.93160 0.45500
H13 H 1.23400 0.93390 0.57600
H14 H 1.16220 0.98190 0.43100
C1B C 1.0967(9) 0.9861(5) -0.0106(6)
C2B C 1.1948(11) 1.0276(6) -0.1147(8)
H1B H 1.32740 1.00760 -0.12680
C3B C 1.0982(11) 1.0983(5) -0.2009(8)
H2B H 1.16660 1.12600 -0.27360
C4B C 0.9012(11) 1.1325(5) -0.1876(7)
C5B C 0.8068(11) 1.0924(5) -0.0847(7)
H3B H 0.67550 1.11460 -0.07250
C6B C 0.8112(10) 1.2147(5) -0.2867(7)
C7B C 0.5961(14) 1.2308(11) -0.2729(13)
H4B H 0.57710 1.26890 -0.18850
H5B H 0.53960 1.27240 -0.34990
H6B H 0.53000 1.16160 -0.27130
C8B C 0.9253(17) 1.3197(7) -0.2673(14)
H7B H 1.06600 1.30710 -0.27780
H8B H 0.87440 1.37130 -0.33530
H9B H 0.90840 1.34770 -0.17650
C9B C 0.8390(15) 1.1799(7) -0.4350(9)
H10B H 0.98220 1.18050 -0.44840
H11B H 0.77620 1.23410 -0.49640
C10B C 0.7593(19) 1.0741(7) -0.4779(11)
H12B H 0.62150 1.06840 -0.45500
H13B H 0.76600 1.06610 -0.57600
H14B H 0.83780 1.01810 -0.43100
loop_
_geom_bond_atom_site_label_1
_geom_bond_atom_site_label_2
_geom_bond_distance
_geom_bond_site_symmetry_1
_geom_bond_site_symmetry_2
C1 C2 1.369 1_555 1_555
C2 H1 0.950 1_555 1_555
C3 C2 1.368 1_555 1_555
H2 C3 0.950 1_555 1_555
C4 C3 1.419 1_555 1_555
C5 C4 1.339 1_555 1_555
H3 C5 0.950 1_555 1_555
C6 C4 1.523 1_555 1_555
C7 C6 1.489 1_555 1_555
H4 C7 0.979 1_555 1_555
H5 C7 0.980 1_555 1_555
H6 C7 0.980 1_555 1_555
C8 C6 1.537 1_555 1_555
H7 C8 0.981 1_555 1_555
H8 C8 0.980 1_555 1_555
H9 C8 0.979 1_555 1_555
C9 C6 1.556 1_555 1_555
H10 C9 0.990 1_555 1_555
H11 C9 0.990 1_555 1_555
C10 C9 1.488 1_555 1_555
H12 C10 0.980 1_555 1_555
H13 C10 0.980 1_555 1_555
H14 C10 0.980 1_555 1_555
C1B C1 1.388 1_555 1_555
C2B C1B 1.369 1_555 1_555
H1B C2B 0.950 1_555 1_555
C3B C2B 1.368 1_555 1_555
H2B C3B 0.950 1_555 1_555
C4B C3B 1.419 1_555 1_555
C5B C1 1.486 1_555 1_555
H3B C5B 0.950 1_555 1_555
C6B C4B 1.523 1_555 1_555
C7B C6B 1.489 1_555 1_555
H4B C7B 0.979 1_555 1_555
H5B C7B 0.980 1_555 1_555
H6B C7B 0.980 1_555 1_555
C8B C6B 1.537 1_555 1_555
H7B C8B 0.981 1_555 1_555
H8B C8B 0.980 1_555 1_555
H9B C8B 0.979 1_555 1_555
C9B C6B 1.556 1_555 1_555
H10B C9B 0.990 1_555 1_555
H11B C9B 0.990 1_555 1_555
C10B C9B 1.488 1_555 1_555
H12B C10B 0.980 1_555 1_555
H13B C10B 0.980 1_555 1_555
H14B C10B 0.980 1_555 1_555
C5 C1B 1.486 1_555 1_555
C4B C5B 1.339 1_555 1_555
#END
