
#######################################################################
#
#                 Cambridge Crystallographic Data Centre
#                                CCDC
#
#######################################################################
#
# If this CIF has been generated from an entry in the Cambridge
# Structural Database, then it will include bibliographic, chemical,
# crystal, experimental, refinement or atomic coordinate data resulting
# from the CCDC's data processing and validation procedures.
#
#######################################################################

data_CSD_CIF_ZAXJEP
_audit_creation_date 2012-07-11
_audit_creation_method CSD-ConQuest-V1
_database_code_CSD ZAXJEP
_database_code_depnum_ccdc_archive 'CCDC 802922'
_chemical_formula_sum 'C22 H16'
_chemical_formula_moiety
;
C22 H16
;
_journal_coden_Cambridge 1278
_journal_volume 116
_journal_year 2012
_journal_page_first 3557
_journal_name_full 'J.Phys.Chem.B '
loop_
_publ_author_name
"C.F.R.A.C.Lima"
"M.A.A.Rocha"
"B.Schroder"
"L.R.Gomes"
"J.N.Low"
"L.M.N.B.F.Santos"
_chemical_name_systematic
;
1,4-Diphenylnaphthalene
;
_cell_volume   2956.312
_exptl_crystal_colour 'colorless'
_exptl_crystal_density_diffrn 1.26
_exptl_crystal_description 'plate'
_diffrn_ambient_temperature 150
#These two values have been output from a single CSD field.
_refine_ls_R_factor_gt 0.1038
_refine_ls_wR_factor_gt 0.1038
_symmetry_cell_setting monoclinic
_symmetry_space_group_name_H-M 'P 21/c'
_symmetry_Int_Tables_number 14
loop_
_symmetry_equiv_pos_site_id
_symmetry_equiv_pos_as_xyz
1 x,y,z
2 -x,1/2+y,1/2-z
3 -x,-y,-z
4 x,-1/2-y,-1/2+z
_cell_length_a 21.445(4)
_cell_length_b 5.9193(13)
_cell_length_c 25.524(6)
_cell_angle_alpha 90
_cell_angle_beta 114.155(7)
_cell_angle_gamma 90
_cell_formula_units_Z 8
loop_
_atom_type_symbol
_atom_type_radius_bond
C 0.68
H 0.23
loop_
_atom_site_label
_atom_site_type_symbol
_atom_site_fract_x
_atom_site_fract_y
_atom_site_fract_z
C1 C 0.3848(2) 0.5299(8) 0.3786(2)
C2 C 0.4205(3) 0.5971(9) 0.4348(2)
H1 H 0.40720 0.53970 0.46350
C3 C 0.4758(3) 0.7478(9) 0.4508(2)
H2 H 0.49850 0.79150 0.48990
C4 C 0.4979(2) 0.8340(8) 0.4111(2)
C5 C 0.4857(3) 0.8355(8) 0.3097(2)
H3 H 0.52640 0.92220 0.32060
C6 C 0.4496(3) 0.7825(9) 0.2527(2)
H4 H 0.46450 0.83570 0.22460
C7 C 0.3903(3) 0.6488(9) 0.2363(2)
H5 H 0.36460 0.61500 0.19690
C8 C 0.3695(3) 0.5674(9) 0.2763(2)
H6 H 0.32980 0.47540 0.26430
C9 C 0.4056(2) 0.6164(8) 0.3357(2)
C10 C 0.4640(2) 0.7644(8) 0.3523(2)
C11 C 0.3274(3) 0.3668(8) 0.3652(2)
C12 C 0.2760(3) 0.4096(9) 0.3837(2)
H7 H 0.27660 0.54610 0.40350
C13 C 0.2238(3) 0.2557(9) 0.3736(2)
H8 H 0.18900 0.28760 0.38650
C14 C 0.2217(3) 0.0551(9) 0.3447(2)
H9 H 0.18580 -0.05030 0.33790
C15 C 0.2728(3) 0.0105(9) 0.3260(2)
H10 H 0.27170 -0.12590 0.30600
C16 C 0.3254(3) 0.1632(9) 0.3362(2)
H11 H 0.36040 0.13020 0.32360
C17 C 0.5555(2) 0.9972(8) 0.4300(2)
C18 C 0.6171(3) 0.9521(9) 0.4767(2)
H12 H 0.62220 0.81370 0.49690
C19 C 0.6711(3) 1.1042(10) 0.4944(2)
H13 H 0.71240 1.07010 0.52650
C20 C 0.6646(3) 1.3060(9) 0.4650(2)
H14 H 0.70180 1.40860 0.47620
C21 C 0.6034(3) 1.3573(9) 0.4193(2)
H15 H 0.59850 1.49680 0.39960
C22 C 0.5493(3) 1.2060(9) 0.4021(2)
H16 H 0.50750 1.24420 0.37110
C23 C 0.1146(3) 0.0328(8) 0.1202(2)
C24 C 0.0545(3) 0.1019(9) 0.0768(2)
H17 H 0.01240 0.04800 0.07610
C25 C 0.0537(3) 0.2510(9) 0.0333(2)
H18 H 0.01110 0.29680 0.00430
C26 C 0.1132(2) 0.3308(8) 0.0322(2)
C27 C 0.2405(3) 0.3317(9) 0.0764(2)
H19 H 0.24040 0.42050 0.04540
C28 C 0.3015(3) 0.2761(9) 0.1197(2)
H20 H 0.34320 0.32650 0.11890
C29 C 0.3021(3) 0.1421(9) 0.1660(2)
H21 H 0.34430 0.10690 0.19690
C30 C 0.2426(3) 0.0633(9) 0.1663(2)
H22 H 0.24420 -0.02840 0.19740
C31 C 0.1778(3) 0.1150(8) 0.1211(2)
C32 C 0.1772(3) 0.2617(8) 0.0761(2)
C33 C 0.1118(3) -0.1288(8) 0.1644(2)
C34 C 0.1486(3) -0.3309(9) 0.1767(2)
H23 H 0.17740 -0.36540 0.15780
C35 C 0.1436(3) -0.4823(10) 0.2166(2)
H24 H 0.16910 -0.61880 0.22480
C36 C 0.1014(3) -0.4343(10) 0.2444(2)
H25 H 0.09810 -0.53720 0.27170
C37 C 0.0644(3) -0.2365(11) 0.2320(2)
H26 H 0.03500 -0.20440 0.25060
C38 C 0.0695(3) -0.0821(9) 0.1925(2)
H27 H 0.04420 0.05470 0.18480
C39 C 0.1101(2) 0.4914(8) -0.0141(2)
C40 C 0.0743(3) 0.4318(9) -0.0717(2)
H28 H 0.05160 0.29010 -0.08130
C41 C 0.0715(3) 0.5780(9) -0.1152(2)
H29 H 0.04670 0.53620 -0.15420
C42 C 0.1047(3) 0.7838(10) -0.1019(2)
H30 H 0.10390 0.88190 -0.13160
C43 C 0.1392(3) 0.8461(9) -0.0450(2)
H31 H 0.16130 0.98890 -0.03570
C44 C 0.1419(3) 0.7024(9) -0.0015(2)
H32 H 0.16560 0.74770 0.03740
loop_
_geom_bond_atom_site_label_1
_geom_bond_atom_site_label_2
_geom_bond_distance
_geom_bond_site_symmetry_1
_geom_bond_site_symmetry_2
C1 C2 1.380 1_555 1_555
C2 H1 0.951 1_555 1_555
C3 C2 1.404 1_555 1_555
H2 C3 0.950 1_555 1_555
C4 C3 1.380 1_555 1_555
C5 H3 0.951 1_555 1_555
C6 C5 1.376 1_555 1_555
H4 C6 0.950 1_555 1_555
C7 C6 1.408 1_555 1_555
H5 C7 0.949 1_555 1_555
C8 C7 1.359 1_555 1_555
H6 C8 0.950 1_555 1_555
C9 C1 1.435 1_555 1_555
C10 C4 1.434 1_555 1_555
C11 C1 1.490 1_555 1_555
C12 C11 1.389 1_555 1_555
H7 C12 0.950 1_555 1_555
C13 C12 1.383 1_555 1_555
H8 C13 0.950 1_555 1_555
C14 C13 1.389 1_555 1_555
H9 C14 0.950 1_555 1_555
C15 C14 1.388 1_555 1_555
H10 C15 0.950 1_555 1_555
C16 C11 1.406 1_555 1_555
H11 C16 0.950 1_555 1_555
C17 C4 1.485 1_555 1_555
C18 C17 1.396 1_555 1_555
H12 C18 0.950 1_555 1_555
C19 C18 1.388 1_555 1_555
H13 C19 0.950 1_555 1_555
C20 C19 1.387 1_555 1_555
H14 C20 0.949 1_555 1_555
C21 C20 1.387 1_555 1_555
H15 C21 0.950 1_555 1_555
C22 C17 1.405 1_555 1_555
H16 C22 0.949 1_555 1_555
C23 C24 1.374 1_555 1_555
C24 H17 0.951 1_555 1_555
C25 C24 1.413 1_555 1_555
H18 C25 0.950 1_555 1_555
C26 C25 1.372 1_555 1_555
C27 H19 0.949 1_555 1_555
C28 C27 1.363 1_555 1_555
H20 C28 0.951 1_555 1_555
C29 C28 1.419 1_555 1_555
H21 C29 0.949 1_555 1_555
C30 C29 1.362 1_555 1_555
H22 C30 0.951 1_555 1_555
C31 C23 1.431 1_555 1_555
C32 C26 1.431 1_555 1_555
C33 C23 1.499 1_555 1_555
C34 C33 1.396 1_555 1_555
H23 C34 0.949 1_555 1_555
C35 C34 1.393 1_555 1_555
H24 C35 0.950 1_555 1_555
C36 C35 1.389 1_555 1_555
H25 C36 0.950 1_555 1_555
C37 C36 1.377 1_555 1_555
H26 C37 0.951 1_555 1_555
C38 C33 1.395 1_555 1_555
H27 C38 0.949 1_555 1_555
C39 C26 1.497 1_555 1_555
C40 C39 1.397 1_555 1_555
H28 C40 0.950 1_555 1_555
C41 C40 1.390 1_555 1_555
H29 C41 0.950 1_555 1_555
C42 C41 1.381 1_555 1_555
H30 C42 0.949 1_555 1_555
C43 C42 1.383 1_555 1_555
H31 C43 0.950 1_555 1_555
C44 C39 1.396 1_555 1_555
H32 C44 0.950 1_555 1_555
C5 C10 1.411 1_555 1_555
C8 C9 1.422 1_555 1_555
C9 C10 1.443 1_555 1_555
C15 C16 1.384 1_555 1_555
C21 C22 1.387 1_555 1_555
C27 C32 1.416 1_555 1_555
C30 C31 1.430 1_555 1_555
C31 C32 1.436 1_555 1_555
C37 C38 1.398 1_555 1_555
C43 C44 1.381 1_555 1_555
#END
