
#######################################################################
#
#                 Cambridge Crystallographic Data Centre
#                                CCDC
#
#######################################################################
#
# If this CIF has been generated from an entry in the Cambridge
# Structural Database, then it will include bibliographic, chemical,
# crystal, experimental, refinement or atomic coordinate data resulting
# from the CCDC's data processing and validation procedures.
#
#######################################################################

data_CSD_CIF_ZEDKAW
_audit_creation_date 2013-02-01
_audit_creation_method CSD-ConQuest-V1
_database_code_CSD ZEDKAW
_database_code_depnum_ccdc_archive 'CCDC 857675'
_chemical_formula_sum 'C34 H30'
_chemical_formula_moiety
;
C34 H30
;
_journal_coden_Cambridge 1350
_journal_volume 14
_journal_year 2012
_journal_page_first 6593
_journal_name_full 'CrystEngComm '
loop_
_publ_author_name
"Yujie Dong"
"Bin Xu"
"Jibo Zhang"
"Hongguang Lu"
"Shanpeng Wen"
"Feipeng Chen"
"Jiating He"
"Bao Li"
"Ling Ye"
"Wenjing Tian"
_chemical_name_systematic
;
9,10-bis(2-(3,5-Dimethylphenyl)vinyl)anthracene
;
_chemical_name_common
;
9,10-bis(3,5-Dimethylstyryl)anthracene
;
_cell_volume   1233.260
_exptl_crystal_density_diffrn 1.181
_diffrn_ambient_temperature 293
#These two values have been output from a single CSD field.
_refine_ls_R_factor_gt 0.0766
_refine_ls_wR_factor_gt 0.0766
_symmetry_cell_setting monoclinic
_symmetry_space_group_name_H-M 'P 21/c'
_symmetry_Int_Tables_number 14
loop_
_symmetry_equiv_pos_site_id
_symmetry_equiv_pos_as_xyz
1 x,y,z
2 -x,1/2+y,1/2-z
3 -x,-y,-z
4 x,-1/2-y,-1/2+z
_cell_length_a 7.7071(15)
_cell_length_b 30.672(6)
_cell_length_c 5.2356(10)
_cell_angle_alpha 90
_cell_angle_beta 94.83(3)
_cell_angle_gamma 90
_cell_formula_units_Z 2
loop_
_atom_type_symbol
_atom_type_radius_bond
C 0.68
H 0.23
loop_
_atom_site_label
_atom_site_type_symbol
_atom_site_fract_x
_atom_site_fract_y
_atom_site_fract_z
C1 C 0.3441(5) 0.69856(14) 0.5726(11)
H1 H 0.27130 0.68510 0.69010
H2 H 0.29930 0.69220 0.39990
H3 H 0.34550 0.72950 0.59870
C2 C 0.5272(4) 0.68088(9) 0.6182(7)
C3 C 0.6429(5) 0.69796(9) 0.8081(6)
H4 H 0.60780 0.72110 0.90640
C4 C 0.8095(4) 0.68154(9) 0.8555(6)
C5 C 0.9345(6) 0.70066(13) 1.0601(8)
H5 H 1.03440 0.68200 1.08780
H6 H 0.87850 0.70330 1.21640
H7 H 0.97080 0.72900 1.00730
C6 C 0.8585(4) 0.64681(9) 0.7063(6)
H8 H 0.96990 0.63520 0.73610
C7 C 0.7451(4) 0.62901(9) 0.5140(6)
C8 C 0.5810(5) 0.64694(9) 0.4736(7)
H9 H 0.50410 0.63560 0.34380
C9 C 0.7883(5) 0.59246(11) 0.3439(7)
H10 H 0.70290 0.58520 0.21490
C10 C 0.9264(5) 0.56995(11) 0.3518(7)
H11 H 1.01340 0.57640 0.48030
C11 C 0.9604(4) 0.53409(9) 0.1719(6)
C12 C 1.1043(4) 0.53780(9) 0.0263(5)
C13 C 1.2115(4) 0.57575(10) 0.0400(6)
H12 H 1.18770 0.59800 0.15260
C14 C 1.3467(5) 0.58026(11) -0.1065(7)
H13 H 1.41640 0.60500 -0.09090
C15 C 1.3818(5) 0.54750(11) -0.2823(8)
H14 H 1.47350 0.55100 -0.38520
C16 C 1.2840(5) 0.51092(11) -0.3037(8)
H15 H 1.30860 0.48980 -0.42310
C17 C 1.1442(4) 0.50393(9) -0.1478(6)
C1B C 1.6559(5) 0.30144(14) -0.5726(11)
H1B H 1.72870 0.31490 -0.69010
H2B H 1.70070 0.30780 -0.39990
H3B H 1.65450 0.27050 -0.59870
C2B C 1.4728(4) 0.31912(9) -0.6182(7)
C3B C 1.3571(5) 0.30204(9) -0.8081(6)
H4B H 1.39220 0.27890 -0.90640
C4B C 1.1905(4) 0.31846(9) -0.8555(6)
C5B C 1.0655(6) 0.29934(13) -1.0601(8)
H5B H 0.96560 0.31800 -1.08780
H6B H 1.12150 0.29670 -1.21640
H7B H 1.02920 0.27100 -1.00730
C6B C 1.1415(4) 0.35319(9) -0.7063(6)
H8B H 1.03010 0.36480 -0.73610
C7B C 1.2549(4) 0.37099(9) -0.5140(6)
C8B C 1.4190(5) 0.35306(9) -0.4736(7)
H9B H 1.49590 0.36440 -0.34380
C9B C 1.2117(5) 0.40754(11) -0.3439(7)
H10B H 1.29710 0.41480 -0.21490
C10B C 1.0736(5) 0.43005(11) -0.3518(7)
H11B H 0.98660 0.42360 -0.48030
C11B C 1.0396(4) 0.46591(9) -0.1719(6)
C12B C 0.8957(4) 0.46220(9) -0.0263(5)
C13B C 0.7885(4) 0.42425(10) -0.0400(6)
H12B H 0.81230 0.40200 -0.15260
C14B C 0.6533(5) 0.41974(11) 0.1065(7)
H13B H 0.58360 0.39500 0.09090
C15B C 0.6182(5) 0.45250(11) 0.2823(8)
H14B H 0.52650 0.44900 0.38520
C16B C 0.7160(5) 0.48908(11) 0.3037(8)
H15B H 0.69140 0.51020 0.42310
C17B C 0.8558(4) 0.49607(9) 0.1478(6)
loop_
_geom_bond_atom_site_label_1
_geom_bond_atom_site_label_2
_geom_bond_distance
_geom_bond_site_symmetry_1
_geom_bond_site_symmetry_2
C1 H1 0.960 1_555 1_555
H2 C1 0.960 1_555 1_555
H3 C1 0.959 1_555 1_555
C2 C1 1.512 1_555 1_555
C3 C2 1.382 1_555 1_555
H4 C3 0.930 1_555 1_555
C4 C3 1.382 1_555 1_555
C5 C4 1.499 1_555 1_555
H5 C5 0.961 1_555 1_555
H6 C5 0.960 1_555 1_555
H7 C5 0.961 1_555 1_555
C6 C4 1.392 1_555 1_555
H8 C6 0.930 1_555 1_555
C7 C6 1.388 1_555 1_555
C8 C2 1.372 1_555 1_555
H9 C8 0.931 1_555 1_555
C9 C7 1.487 1_555 1_555
H10 C9 0.930 1_555 1_555
C10 C9 1.266 1_555 1_555
H11 C10 0.930 1_555 1_555
C11 C10 1.486 1_555 1_555
C12 C11 1.402 1_555 1_555
C13 C12 1.426 1_555 1_555
H12 C13 0.930 1_555 1_555
C14 C13 1.352 1_555 1_555
H13 C14 0.929 1_555 1_555
C15 C14 1.404 1_555 1_555
H14 C15 0.930 1_555 1_555
C16 C15 1.351 1_555 1_555
H15 C16 0.931 1_555 1_555
C17 C12 1.432 1_555 1_555
C1B H1B 0.960 1_555 1_555
H2B C1B 0.960 1_555 1_555
H3B C1B 0.959 1_555 1_555
C2B C1B 1.512 1_555 1_555
C3B C2B 1.382 1_555 1_555
H4B C3B 0.930 1_555 1_555
C4B C3B 1.382 1_555 1_555
C5B C4B 1.499 1_555 1_555
H5B C5B 0.961 1_555 1_555
H6B C5B 0.960 1_555 1_555
H7B C5B 0.961 1_555 1_555
C6B C4B 1.392 1_555 1_555
H8B C6B 0.930 1_555 1_555
C7B C6B 1.388 1_555 1_555
C8B C2B 1.372 1_555 1_555
H9B C8B 0.931 1_555 1_555
C9B C7B 1.487 1_555 1_555
H10B C9B 0.930 1_555 1_555
C10B C9B 1.266 1_555 1_555
H11B C10B 0.930 1_555 1_555
C11B C17 1.417 1_555 1_555
C12B C11B 1.402 1_555 1_555
C13B C12B 1.426 1_555 1_555
H12B C13B 0.930 1_555 1_555
C14B C13B 1.352 1_555 1_555
H13B C14B 0.929 1_555 1_555
C15B C14B 1.404 1_555 1_555
H14B C15B 0.930 1_555 1_555
C16B C15B 1.351 1_555 1_555
H15B C16B 0.931 1_555 1_555
C17B C11 1.417 1_555 1_555
C7 C8 1.379 1_555 1_555
C16 C17 1.422 1_555 1_555
C7B C8B 1.379 1_555 1_555
C10B C11B 1.486 1_555 1_555
C12B C17B 1.432 1_555 1_555
C16B C17B 1.422 1_555 1_555
#END
