
#######################################################################
#
#                 Cambridge Crystallographic Data Centre
#                                CCDC
#
#######################################################################
#
# If this CIF has been generated from an entry in the Cambridge
# Structural Database, then it will include bibliographic, chemical,
# crystal, experimental, refinement or atomic coordinate data resulting
# from the CCDC's data processing and validation procedures.
#
#######################################################################

data_CSD_CIF_ZEFYER
_audit_creation_date 2017-07-10
_audit_creation_method CSD-ConQuest-V1
_database_code_CSD ZEFYER
_database_code_depnum_ccdc_archive 'CCDC 1520722'
_chemical_formula_sum 'C24 H16'
_chemical_formula_moiety
;
C24 H16
;
_journal_coden_Cambridge 1290
_journal_year 2017
_journal_page_first 3174
_journal_name_full 'Eur.J.Inorg.Chem. '
loop_
_publ_author_name
"Ruichen Sun"
"Xiaodan Chu"
"Shaowei Zhang"
"Tongyu Li"
"Zhuo Wang"
"Bolin Zhu"
_chemical_name_systematic
;
1,2-diphenylacenaphthylene
;
_cell_volume   1568.274
_exptl_crystal_colour 'orange'
_exptl_crystal_density_diffrn 1.289
_exptl_crystal_description 'block'
_diffrn_ambient_temperature 173
#These two values have been output from a single CSD field.
_refine_ls_R_factor_gt 0.0541
_refine_ls_wR_factor_gt 0.0541
_symmetry_cell_setting triclinic
_symmetry_space_group_name_H-M 'P -1'
_symmetry_Int_Tables_number 2
loop_
_symmetry_equiv_pos_site_id
_symmetry_equiv_pos_as_xyz
1 x,y,z
2 -x,-y,-z
_cell_length_a 9.0537(6)
_cell_length_b 10.6469(8)
_cell_length_c 17.1815(12)
_cell_angle_alpha 90.307(2)
_cell_angle_beta 98.948(1)
_cell_angle_gamma 106.288(1)
_cell_formula_units_Z 4
loop_
_atom_type_symbol
_atom_type_radius_bond
C 0.68
H 0.23
loop_
_atom_site_label
_atom_site_type_symbol
_atom_site_fract_x
_atom_site_fract_y
_atom_site_fract_z
C1 C 0.7480(2) -0.03137(18) 0.83811(11)
H1 H 0.75650 -0.11150 0.81740
C2 C 0.8694(2) 0.04822(18) 0.89102(11)
H2 H 0.96120 0.02220 0.90700
C3 C 0.8581(2) 0.16538(18) 0.92091(11)
H3 H 0.94330 0.22000 0.95640
C4 C 0.7226(2) 0.20468(17) 0.89957(10)
C5 C 0.6010(2) 0.12305(17) 0.84637(11)
H4 H 0.50800 0.14760 0.83100
C6 C 0.6137(2) 0.00661(18) 0.81550(11)
H5 H 0.53020 -0.04720 0.77880
C7 C 0.7095(2) 0.32858(17) 0.9318(1)
C8 C 0.76444(19) 0.38260(17) 1.00721(10)
C9 C 0.8342(2) 0.32287(18) 1.07528(10)
C10 C 0.7650(2) 0.19347(18) 1.09228(11)
H6 H 0.67140 0.14390 1.06010
C11 C 0.8314(2) 0.1370(2) 1.15546(11)
H7 H 0.78320 0.04900 1.16640
C12 C 0.9677(2) 0.2077(2) 1.20285(12)
H8 H 1.01350 0.16840 1.24600
C13 C 1.0368(2) 0.3359(2) 1.18696(11)
H9 H 1.13050 0.38480 1.21940
C14 C 0.9702(2) 0.39360(19) 1.12379(11)
H10 H 1.01800 0.48210 1.11370
C15 C 0.73412(19) 0.51108(17) 1.0124(1)
C16 C 0.7573(2) 0.60581(17) 1.07110(11)
H11 H 0.80600 0.59630 1.12300
C17 C 0.7066(2) 0.71818(18) 1.05237(11)
H12 H 0.72430 0.78470 1.09260
C18 C 0.6333(2) 0.73507(17) 0.97882(11)
H13 H 0.60190 0.81220 0.96880
C19 C 0.6042(2) 0.63648(17) 0.91743(11)
C20 C 0.65730(19) 0.52894(17) 0.93721(10)
C21 C 0.6386(2) 0.42020(17) 0.88552(10)
C22 C 0.5643(2) 0.42114(18) 0.80971(10)
H14 H 0.55120 0.35080 0.77260
C23 C 0.5074(2) 0.52938(18) 0.78777(11)
H15 H 0.45490 0.52960 0.73540
C24 C 0.5251(2) 0.63364(18) 0.83908(11)
H16 H 0.48440 0.70390 0.82220
C25 C 0.7679(2) 0.67048(17) 0.54638(10)
C26 C 0.6570(2) 0.67670(18) 0.59319(10)
H17 H 0.57160 0.60160 0.59570
C27 C 0.6698(2) 0.79093(18) 0.63599(11)
H18 H 0.59360 0.79360 0.66770
C28 C 0.7931(2) 0.90115(18) 0.63273(11)
H19 H 0.80190 0.97940 0.66210
C29 C 0.9040(2) 0.89659(18) 0.58617(11)
H20 H 0.98840 0.97230 0.58340
C30 C 0.8924(2) 0.78252(17) 0.54386(10)
H21 H 0.96970 0.78020 0.51270
C31 C 0.75617(19) 0.54803(17) 0.50265(10)
C32 C 0.78543(19) 0.53208(16) 0.42778(10)
C33 C 0.8247(2) 0.63370(17) 0.37034(10)
C34 C 0.7458(2) 0.72923(17) 0.35935(10)
H22 H 0.66630 0.72940 0.38950
C35 C 0.7823(2) 0.82380(17) 0.30495(11)
H23 H 0.72740 0.88800 0.29770
C36 C 0.8990(2) 0.82492(18) 0.26106(11)
H24 H 0.92460 0.89040 0.22410
C37 C 0.9776(2) 0.73091(19) 0.27110(11)
H25 H 1.05760 0.73190 0.24110
C38 C 0.9404(2) 0.63496(17) 0.32485(11)
H26 H 0.99380 0.56960 0.33080
C39 C 0.76395(19) 0.39129(17) 0.4104(1)
C40 C 0.7710(2) 0.31634(17) 0.34656(11)
H27 H 0.79750 0.35570 0.29920
C41 C 0.7378(2) 0.17846(18) 0.35302(11)
H28 H 0.74430 0.12650 0.30920
C42 C 0.6969(2) 0.11713(18) 0.41975(11)
H29 H 0.67610 0.02470 0.42160
C43 C 0.6857(2) 0.19240(17) 0.48605(11)
C44 C 0.7207(2) 0.32658(17) 0.47825(11)
C45 C 0.71358(19) 0.41749(17) 0.53634(10)
C46 C 0.6737(2) 0.37089(18) 0.60693(11)
H30 H 0.66970 0.42910 0.64810
C47 C 0.6389(2) 0.23426(18) 0.61689(11)
H31 H 0.61120 0.20200 0.66570
C48 C 0.6433(2) 0.14667(18) 0.55928(11)
H32 H 0.61800 0.05570 0.56820
loop_
_geom_bond_atom_site_label_1
_geom_bond_atom_site_label_2
_geom_bond_distance
_geom_bond_site_symmetry_1
_geom_bond_site_symmetry_2
C1 H1 0.950 1_555 1_555
C2 C1 1.382 1_555 1_555
H2 C2 0.950 1_555 1_555
C3 C2 1.382 1_555 1_555
H3 C3 0.950 1_555 1_555
C4 C3 1.401 1_555 1_555
C5 C4 1.394 1_555 1_555
H4 C5 0.950 1_555 1_555
C6 C1 1.387 1_555 1_555
H5 C6 0.950 1_555 1_555
C7 C4 1.470 1_555 1_555
C8 C7 1.374 1_555 1_555
C9 C8 1.475 1_555 1_555
C10 C9 1.397 1_555 1_555
H6 C10 0.950 1_555 1_555
C11 C10 1.381 1_555 1_555
H7 C11 0.950 1_555 1_555
C12 C11 1.383 1_555 1_555
H8 C12 0.950 1_555 1_555
C13 C12 1.381 1_555 1_555
H9 C13 0.950 1_555 1_555
C14 C9 1.390 1_555 1_555
H10 C14 0.949 1_555 1_555
C15 C8 1.474 1_555 1_555
C16 C15 1.372 1_555 1_555
H11 C16 0.951 1_555 1_555
C17 C16 1.418 1_555 1_555
H12 C17 0.950 1_555 1_555
C18 C17 1.370 1_555 1_555
H13 C18 0.950 1_555 1_555
C19 C18 1.425 1_555 1_555
C20 C15 1.409 1_555 1_555
C21 C7 1.482 1_555 1_555
C22 C21 1.371 1_555 1_555
H14 C22 0.950 1_555 1_555
C23 C22 1.419 1_555 1_555
H15 C23 0.950 1_555 1_555
C24 C19 1.419 1_555 1_555
H16 C24 0.950 1_555 1_555
C25 C26 1.395 1_555 1_555
C26 H17 0.950 1_555 1_555
C27 C26 1.385 1_555 1_555
H18 C27 0.949 1_555 1_555
C28 C27 1.383 1_555 1_555
H19 C28 0.949 1_555 1_555
C29 C28 1.388 1_555 1_555
H20 C29 0.950 1_555 1_555
C30 C25 1.399 1_555 1_555
H21 C30 0.950 1_555 1_555
C31 C25 1.471 1_555 1_555
C32 C31 1.372 1_555 1_555
C33 C32 1.475 1_555 1_555
C34 C33 1.396 1_555 1_555
H22 C34 0.950 1_555 1_555
C35 C34 1.384 1_555 1_555
H23 C35 0.950 1_555 1_555
C36 C35 1.388 1_555 1_555
H24 C36 0.950 1_555 1_555
C37 C36 1.379 1_555 1_555
H25 C37 0.950 1_555 1_555
C38 C33 1.398 1_555 1_555
H26 C38 0.950 1_555 1_555
C39 C32 1.479 1_555 1_555
C40 C39 1.373 1_555 1_555
H27 C40 0.950 1_555 1_555
C41 C40 1.422 1_555 1_555
H28 C41 0.951 1_555 1_555
C42 C41 1.372 1_555 1_555
H29 C42 0.950 1_555 1_555
C43 C42 1.422 1_555 1_555
C44 C39 1.409 1_555 1_555
C45 C31 1.481 1_555 1_555
C46 C45 1.375 1_555 1_555
H30 C46 0.950 1_555 1_555
C47 C46 1.417 1_555 1_555
H31 C47 0.951 1_555 1_555
C48 C43 1.421 1_555 1_555
H32 C48 0.950 1_555 1_555
C5 C6 1.387 1_555 1_555
C13 C14 1.389 1_555 1_555
C19 C20 1.386 1_555 1_555
C20 C21 1.411 1_555 1_555
C23 C24 1.371 1_555 1_555
C29 C30 1.382 1_555 1_555
C37 C38 1.387 1_555 1_555
C43 C44 1.386 1_555 1_555
C44 C45 1.408 1_555 1_555
C47 C48 1.369 1_555 1_555
#END
