
#######################################################################
#
#                 Cambridge Crystallographic Data Centre
#                                CCDC
#
#######################################################################
#
# If this CIF has been generated from an entry in the Cambridge
# Structural Database, then it will include bibliographic, chemical,
# crystal, experimental, refinement or atomic coordinate data resulting
# from the CCDC's data processing and validation procedures.
#
#######################################################################

data_CSD_CIF_ZEFYAK
_audit_creation_date 1982-09-17
_audit_creation_method CSD-ConQuest-V1
_database_code_CSD ZEFYAK
_chemical_formula_sum 'C30 H22'
_chemical_formula_moiety
;
C30 H22
;
_journal_coden_Cambridge 37
_journal_volume 85
_journal_year 1981
_journal_page_first 2923
_journal_name_full 'J.Phys.Chem. '
loop_
_publ_author_name
"H.-D.Becker"
"K.Sandros"
"B.W.Skelton"
"A.H.White"
_chemical_name_systematic
;
1',2'-Dihydrospiro(anthracene-9(10H),3'-(3H)benz(de)anthracene)
;
_cell_volume   4025.355
_exptl_crystal_density_diffrn 1.26
_diffrn_ambient_temperature ?
_diffrn_special_details
;
The study was carried out at room temperature,in the range 283-303K

;
#These two values have been output from a single CSD field.
_refine_ls_R_factor_gt 0.049
_refine_ls_wR_factor_gt 0.049
_symmetry_cell_setting orthorhombic
_symmetry_space_group_name_H-M 'P c c n'
_symmetry_Int_Tables_number 56
loop_
_symmetry_equiv_pos_site_id
_symmetry_equiv_pos_as_xyz
1 x,y,z
2 1/2-x,y,1/2+z
3 x,1/2-y,1/2+z
4 1/2-x,1/2-y,z
5 -x,-y,-z
6 -1/2+x,-y,-1/2-z
7 -x,-1/2+y,-1/2-z
8 -1/2+x,-1/2+y,-z
_cell_length_a 23.894(10)
_cell_length_b 23.157(18)
_cell_length_c 7.275(4)
_cell_angle_alpha 90
_cell_angle_beta 90
_cell_angle_gamma 90
_cell_formula_units_Z 8
loop_
_atom_type_symbol
_atom_type_radius_bond
C 0.68
H 0.23
loop_
_atom_site_label
_atom_site_type_symbol
_atom_site_fract_x
_atom_site_fract_y
_atom_site_fract_z
C1 C 0.47200 0.68890 0.10530
C2 C 0.48780 0.66320 0.28910
C3 C 0.53260 0.68680 0.38440
C4 C 0.54950 0.66120 0.54640
C5 C 0.52350 0.61250 0.61570
C6 C 0.47860 0.58990 0.51820
C7 C 0.46030 0.61490 0.35500
C8 C 0.41350 0.58770 0.24230
C9 C 0.44340 0.54490 0.11380
C10 C 0.38190 0.63260 0.12900
C11 C 0.32540 0.62800 0.08620
C12 C 0.29830 0.66880 -0.02300
C13 C 0.32750 0.71500 -0.09120
C14 C 0.38390 0.72080 -0.04510
C15 C 0.41110 0.68060 0.06120
C16 C 0.36860 0.47090 0.14750
C17 C 0.40370 0.50390 0.01280
C18 C 0.35100 0.41410 0.11000
C19 C 0.36490 0.38410 -0.05530
C20 C 0.34950 0.32800 -0.08090
C21 C 0.31850 0.29800 0.05240
C22 C 0.30240 0.32490 0.20770
C23 C 0.31930 0.38350 0.24100
C24 C 0.30180 0.41020 0.40300
C25 C 0.31690 0.46690 0.43820
C26 C 0.29720 0.49630 0.59690
C27 C 0.31170 0.55180 0.63200
C28 C 0.34940 0.58020 0.51520
C29 C 0.37070 0.55460 0.35950
C30 C 0.35340 0.49750 0.31550
H1 H 0.49500 0.67200 0.01300
H2 H 0.48100 0.73000 0.10700
H3 H 0.55200 0.72100 0.33300
H4 H 0.58100 0.68000 0.61500
H5 H 0.53700 0.59600 0.73300
H6 H 0.46000 0.55400 0.56400
H7 H 0.46900 0.56500 0.02900
H8 H 0.47000 0.52000 0.18800
H9 H 0.30500 0.59300 0.13400
H10 H 0.25800 0.66500 -0.05200
H11 H 0.30800 0.74400 -0.16800
H12 H 0.40500 0.75500 -0.09200
H13 H 0.38000 0.52900 -0.06400
H14 H 0.42400 0.48000 -0.07100
H15 H 0.38800 0.40500 -0.14900
H16 H 0.36000 0.30700 -0.19800
H17 H 0.30700 0.25800 0.02800
H18 H 0.28000 0.30300 0.29900
H19 H 0.27700 0.39000 0.48800
H20 H 0.27300 0.47600 0.68700
H21 H 0.29600 0.57500 0.73600
H22 H 0.36200 0.62000 0.54100
loop_
_geom_bond_atom_site_label_1
_geom_bond_atom_site_label_2
_geom_bond_distance
_geom_bond_site_symmetry_1
_geom_bond_site_symmetry_2
C1 C2 1.512 1_555 1_555
C2 C3 1.388 1_555 1_555
C3 C4 1.380 1_555 1_555
C4 C5 1.383 1_555 1_555
C5 C6 1.389 1_555 1_555
C6 C7 1.391 1_555 1_555
C7 C2 1.383 1_555 1_555
C8 C7 1.523 1_555 1_555
C9 C8 1.538 1_555 1_555
C10 C8 1.527 1_555 1_555
C11 C10 1.390 1_555 1_555
C12 C11 1.394 1_555 1_555
C13 C12 1.370 1_555 1_555
C14 C13 1.395 1_555 1_555
C15 C1 1.502 1_555 1_555
C16 C17 1.499 1_555 1_555
C17 C9 1.530 1_555 1_555
C18 C16 1.408 1_555 1_555
C19 C18 1.428 1_555 1_555
C20 C19 1.363 1_555 1_555
C21 C20 1.404 1_555 1_555
C22 C21 1.346 1_555 1_555
C23 C18 1.409 1_555 1_555
C24 C23 1.395 1_555 1_555
C25 C24 1.386 1_555 1_555
C26 C25 1.421 1_555 1_555
C27 C26 1.355 1_555 1_555
C28 C27 1.402 1_555 1_555
C29 C8 1.536 1_555 1_555
C30 C16 1.416 1_555 1_555
H1 C1 0.952 1_555 1_555
H2 C1 0.976 1_555 1_555
H3 C3 0.991 1_555 1_555
H4 C4 1.003 1_555 1_555
H5 C5 0.989 1_555 1_555
H6 C6 1.000 1_555 1_555
H7 C9 0.986 1_555 1_555
H8 C9 1.014 1_555 1_555
H9 C11 1.008 1_555 1_555
H10 C12 0.990 1_555 1_555
H11 C13 0.990 1_555 1_555
H12 C14 0.999 1_555 1_555
H13 C17 0.985 1_555 1_555
H14 C17 0.956 1_555 1_555
H15 C19 1.002 1_555 1_555
H16 C20 1.013 1_555 1_555
H17 C21 0.982 1_555 1_555
H18 C22 0.992 1_555 1_555
H19 C24 0.976 1_555 1_555
H20 C26 0.992 1_555 1_555
H21 C27 1.001 1_555 1_555
H22 C28 0.988 1_555 1_555
C10 C15 1.402 1_555 1_555
C14 C15 1.374 1_555 1_555
C22 C23 1.436 1_555 1_555
C25 C30 1.435 1_555 1_555
C28 C29 1.376 1_555 1_555
C29 C30 1.422 1_555 1_555
#END
