
#######################################################################
#
#                 Cambridge Crystallographic Data Centre
#                                CCDC
#
#######################################################################
#
# If this CIF has been generated from an entry in the Cambridge
# Structural Database, then it will include bibliographic, chemical,
# crystal, experimental, refinement or atomic coordinate data resulting
# from the CCDC's data processing and validation procedures.
#
#######################################################################

data_CSD_CIF_ZEGKAX10
_audit_creation_date 1986-02-24
_audit_creation_method CSD-ConQuest-V1
_database_code_CSD ZEGKAX10
_chemical_formula_sum 'C20 H16'
_chemical_formula_moiety
;
C20 H16
;
_journal_coden_Cambridge 557
_journal_volume 5
_journal_year 1984
_journal_page_first 1421
_journal_name_full 'Carcinogenesis '
loop_
_publ_author_name
"D.E.Zacharias"
"S.Kashino"
"J.P.Glusker"
"R.G.Harvey"
"S.Amin"
"S.S.Hecht"
_chemical_name_systematic
;
5,6-Dimethylchrysene
;
_cell_volume   2769.948
_exptl_crystal_density_diffrn 1.23
_diffrn_ambient_temperature ?
_diffrn_special_details
;
The study was carried out at room temperature,in the range 283-303K

;
#These two values have been output from a single CSD field.
_refine_ls_R_factor_gt 0.068
_refine_ls_wR_factor_gt 0.068
_symmetry_cell_setting monoclinic
_symmetry_space_group_name_H-M 'P 21/c'
_symmetry_Int_Tables_number 14
loop_
_symmetry_equiv_pos_site_id
_symmetry_equiv_pos_as_xyz
1 x,y,z
2 -x,1/2+y,1/2-z
3 -x,-y,-z
4 x,-1/2-y,-1/2+z
_cell_length_a 21.792(3)
_cell_length_b 17.064(2)
_cell_length_c 7.461(1)
_cell_angle_alpha 90
_cell_angle_beta 93.26(1)
_cell_angle_gamma 90
_cell_formula_units_Z 8
loop_
_atom_type_symbol
_atom_type_radius_bond
C 0.68
H 0.23
loop_
_atom_site_label
_atom_site_type_symbol
_atom_site_fract_x
_atom_site_fract_y
_atom_site_fract_z
C1 C 0.4510(1) 0.4131(2) 0.4036(3)
C2 C 0.4885(1) 0.3593(2) 0.4782(4)
C3 C 0.4644(1) 0.2871(2) 0.5349(3)
C4 C 0.4027(4) 0.2699(1) 0.5051(3)
C5 C 0.2708(1) 0.2323(1) 0.3760(2)
C6 C 0.2068(1) 0.2235(1) 0.3727(3)
C7 C 0.1021(1) 0.2835(2) 0.3685(4)
C8 C 0.0649(1) 0.3459(2) 0.3462(4)
C9 C 0.0897(1) 0.4197(2) 0.3179(4)
C10 C 0.1519(1) 0.4295(1) 0.3157(3)
C11 C 0.2841(1) 0.4495(1) 0.3111(3)
C12 C 0.3469(1) 0.4595(1) 0.3181(3)
C13 C 0.3863(1) 0.3982(1) 0.3767(3)
C14 C 0.36278(9) 0.3240(1) 0.4174(2)
C15 C 0.29610(9) 0.3097(1) 0.3805(2)
C16 C 0.2590(1) 0.3748(1) 0.3442(2)
C17 C 0.1919(1) 0.3653(1) 0.3397(3)
C18 C 0.1677(1) 0.2910(1) 0.3636(3)
C19 C 0.3086(1) 0.1599(1) 0.3535(3)
C20 C 0.1777(1) 0.1423(1) 0.3686(4)
C1' C 0.5829(1) 0.1434(1) 0.4264(3)
C2' C 0.5589(1) 0.0909(2) 0.5385(4)
C3' C 0.5983(1) 0.0430(1) 0.6447(4)
C4' C 0.6603(1) 0.0509(1) 0.6392(3)
C5' C 0.79870(9) 0.0854(1) 0.6491(3)
C6' C 0.85902(9) 0.0801(1) 0.6109(3)
C7' C 0.9433(1) 0.1101(1) 0.4082(3)
C8' C 0.9638(1) 0.1489(2) 0.2591(4)
C9' C 0.9234(1) 0.1935(2) 0.1523(4)
C10' C 0.8630(1) 0.1972(1) 0.1884(3)
C11' C 0.7314(1) 0.1999(1) 0.2550(3)
C12' C 0.6711(1) 0.2002(1) 0.2810(3)
C13' C 0.64699(9) 0.1517(1) 0.4145(3)
C14' C 0.68775(9) 0.1070(1) 0.5288(3)
C15' C 0.75373(9) 0.1160(1) 0.5161(2)
C16' C 0.77492(9) 0.1571(1) 0.3683(3)
C17' C 0.8394(1) 0.1569(1) 0.3342(3)
C18' C 0.88091(9) 0.1139(1) 0.4494(3)
C19' C 0.7807(1) 0.0675(1) 0.8379(3)
C20' C 0.9050(1) 0.0409(2) 0.7419(4)
H1 H 0.463(1) 0.470(1) 0.372(3)
H2 H 0.534(1) 0.368(1) 0.490(3)
H3 H 0.494(1) 0.242(1) 0.597(3)
H4 H 0.3873(9) 0.211(1) 0.545(3)
H7 H 0.0890(9) 0.237(1) 0.402(3)
H8 H 0.022(1) 0.334(1) 0.353(4)
H9 H 0.061(1) 0.465(1) 0.312(3)
H10 H 0.1745(9) 0.482(1) 0.284(3)
H11 H 0.2558(8) 0.496(1) 0.272(3)
H12 H 0.3636(9) 0.512(1) 0.280(3)
H119 H 0.2852(9) 0.125(1) 0.259(3)
H219 H 0.322(1) 0.131(1) 0.480(3)
H319 H 0.358(1) 0.178(2) 0.306(4)
H120 H 0.211(1) 0.100(2) 0.434(5)
H220 H 0.158(2) 0.125(2) 0.234(5)
H320 H 0.138(1) 0.142(2) 0.474(4)
H1' H 0.5595(9) 0.175(1) 0.345(3)
H2' H 0.5162(9) 0.084(1) 0.551(3)
H3' H 0.5800(9) -0.001(1) 0.705(3)
H4' H 0.6876(8) 0.014(1) 0.706(3)
H7' H 0.9725(9) 0.080(1) 0.488(3)
H8' H 1.0084(9) 0.148(1) 0.226(3)
H9' H 0.939(1) 0.228(2) 0.051(4)
H10' H 0.8334(9) 0.226(1) 0.109(3)
H11' H 0.7465(9) 0.234(1) 0.163(3)
H12' H 0.6404(9) 0.231(1) 0.205(3)
H119' H 0.7417(9) 0.096(1) 0.867(3)
H219' H 0.773(1) 0.010(4) 0.859(3)
H319' H 0.814(1) 0.082(1) 0.910(3)
H120' H 0.888(1) 0.007(2) 0.828(4)
H220' H 0.932(1) 0.007(2) 0.673(4)
H320' H 0.930(1) 0.079(2) 0.795(3)
loop_
_geom_bond_atom_site_label_1
_geom_bond_atom_site_label_2
_geom_bond_distance
_geom_bond_site_symmetry_1
_geom_bond_site_symmetry_2
C1 C2 1.330 1_555 1_555
C2 C3 1.413 1_555 1_555
C3 C4 1.382 1_555 1_555
C4 C14 1.404 1_555 1_555
C5 C6 1.402 1_555 1_555
C6 C18 1.432 1_555 1_555
C7 C8 1.343 1_555 1_555
C8 C9 1.391 1_555 1_555
C9 C10 1.367 1_555 1_555
C10 C17 1.405 1_555 1_555
C11 C12 1.377 1_555 1_555
C12 C13 1.407 1_555 1_555
C13 C1 1.436 1_555 1_555
C14 C13 1.406 1_555 1_555
C15 C5 1.431 1_555 1_555
C16 C11 1.414 1_555 1_555
C17 C16 1.470 1_555 1_555
C18 C7 1.438 1_555 1_555
C19 C5 1.500 1_555 1_555
C20 C6 1.523 1_555 1_555
C1' C2' 1.351 1_555 1_555
C2' C3' 1.398 1_555 1_555
C3' C4' 1.361 1_555 1_555
C4' C14' 1.417 1_555 1_555
C5' C6' 1.364 1_555 1_555
C6' C18' 1.441 1_555 1_555
C7' C8' 1.390 1_555 1_555
C8' C9' 1.382 1_555 1_555
C9' C10' 1.360 1_555 1_555
C10' C17' 1.409 1_555 1_555
C11' C12' 1.339 1_555 1_555
C12' C13' 1.419 1_555 1_555
C13' C1' 1.412 1_555 1_555
C14' C13' 1.418 1_555 1_555
C15' C5' 1.452 1_555 1_555
C16' C11' 1.434 1_555 1_555
C17' C16' 1.442 1_555 1_555
C18' C7' 1.412 1_555 1_555
C19' C5' 1.515 1_555 1_555
C20' C6' 1.515 1_555 1_555
H1 C1 1.036 1_555 1_555
H2 C2 1.002 1_555 1_555
H3 C3 1.090 1_555 1_555
H4 C4 1.106 1_555 1_555
H7 C7 0.884 1_555 1_555
H8 C8 0.961 1_555 1_555
H9 C9 0.994 1_555 1_555
H10 C10 1.056 1_555 1_555
H11 C11 1.037 1_555 1_555
H12 C12 1.014 1_555 1_555
H119 C19 1.035 1_555 1_555
H219 C19 1.090 1_555 1_555
H319 C19 1.193 1_555 1_555
H120 C20 1.116 1_555 1_555
H220 C20 1.109 1_555 1_555
H320 C20 1.202 1_555 1_555
H1' C1' 0.940 1_555 1_555
H2' C2' 0.948 1_555 1_555
H3' C3' 0.972 1_555 1_555
H4' C4' 0.982 1_555 1_555
H7' C7' 0.990 1_555 1_555
H8' C8' 1.016 1_555 1_555
H9' C9' 1.031 1_555 1_555
H10' C10' 0.982 1_555 1_555
H11' C11' 0.971 1_555 1_555
H12' C12' 1.001 1_555 1_555
H119' C19' 1.013 1_555 1_555
H219' C19' 1.009 1_555 1_555
H319' C19' 0.913 1_555 1_555
H120' C20' 0.955 1_555 1_555
H220' C20' 0.990 1_555 1_555
H320' C20' 0.923 1_555 1_555
C14 C15 1.484 1_555 1_555
C15 C16 1.391 1_555 1_555
C17 C18 1.389 1_555 1_555
C14' C15' 1.454 1_555 1_555
C15' C16' 1.407 1_555 1_555
C17' C18' 1.417 1_555 1_555
#END
