
#######################################################################
#
#                 Cambridge Crystallographic Data Centre
#                                CCDC
#
#######################################################################
#
# If this CIF has been generated from an entry in the Cambridge
# Structural Database, then it will include bibliographic, chemical,
# crystal, experimental, refinement or atomic coordinate data resulting
# from the CCDC's data processing and validation procedures.
#
#######################################################################

data_CSD_CIF_ZERQAR
_audit_creation_date 2018-03-21
_audit_creation_method CSD-ConQuest-V1
_database_code_CSD ZERQAR
_database_code_depnum_ccdc_archive 'CCDC 1831538'
_chemical_formula_sum 'C30 H16'
_chemical_formula_moiety
;
C30 H16
;
_journal_coden_Cambridge 4
_journal_volume 140
_journal_year 2018
_journal_page_first 2769
_journal_name_full 'J.Am.Chem.Soc. '
loop_
_publ_author_name
"A.U.Malik"
"Fuwei Gan"
"Chengshuo Shen"
"Na Yu"
"Ruibin Wang"
"J.Crassous"
"Mouhai Shu"
"Huibin Qiu"
_chemical_name_systematic
;
4,13-diethynylhexahelicene
;
_cell_volume   1892.972
_exptl_crystal_colour 'colorless'
_exptl_crystal_density_diffrn 1.321
_exptl_crystal_description 'block'
_diffrn_ambient_temperature 173
_diffrn_special_details
;
twin

;
#These two values have been output from a single CSD field.
_refine_ls_R_factor_gt 0.0282
_refine_ls_wR_factor_gt 0.0282
_symmetry_cell_setting orthorhombic
_symmetry_space_group_name_H-M 'P 21 21 21'
_symmetry_Int_Tables_number 19
loop_
_symmetry_equiv_pos_site_id
_symmetry_equiv_pos_as_xyz
1 x,y,z
2 1/2-x,-y,1/2+z
3 -x,1/2+y,1/2-z
4 1/2+x,1/2-y,-z
_cell_length_a 5.146
_cell_length_b 18.162
_cell_length_c 20.254
_cell_angle_alpha 90
_cell_angle_beta 90
_cell_angle_gamma 90
_cell_formula_units_Z 4
loop_
_atom_type_symbol
_atom_type_radius_bond
C 0.68
H 0.23
loop_
_atom_site_label
_atom_site_type_symbol
_atom_site_fract_x
_atom_site_fract_y
_atom_site_fract_z
C1 C 0.8403(5) -1.12181(13) -1.50159(11)
H1 H 0.951(4) -1.1018(13) -1.4683(10)
C2 C 0.7080(4) -1.14563(11) -1.54391(9)
C3 C 0.5533(4) -1.17381(10) -1.59760(9)
C4 C 0.3427(4) -1.13405(11) -1.62009(9)
H2 H 0.29810 -1.08860 -1.59980
C5 C 0.1953(4) -1.1609(1) -1.67279(9)
H3 H 0.04450 -1.13500 -1.68660
C6 C 0.2663(4) -1.22435(10) -1.70477(9)
H4 H 0.16510 -1.24100 -1.74100
C7 C 0.4862(4) -1.26560(9) -1.68520(9)
C8 C 0.6233(4) -1.24191(10) -1.62814(8)
C9 C 0.8206(4) -1.28780(11) -1.60085(9)
H5 H 0.92180 -1.27070 -1.56470
C10 C 0.8639(4) -1.35527(11) -1.62614(10)
H6 H 0.98610 -1.38670 -1.60510
C11 C 0.7320(4) -1.38084(10) -1.68346(9)
C12 C 0.5617(4) -1.33331(10) -1.71825(9)
C13 C 0.7604(5) -1.45543(10) -1.70348(10)
H7 H 0.88550 -1.48600 -1.68260
C14 C 0.6098(5) -1.48278(11) -1.75213(10)
H8 H 0.60910 -1.53430 -1.76040
C15 C 0.4526(4) -1.43572(10) -1.79119(10)
C16 C 0.4576(4) -1.35843(10) -1.78086(9)
C17 C 0.2894(5) -1.46621(11) -1.84079(10)
H9 H 0.28080 -1.51810 -1.84610
C18 C 0.1465(5) -1.42230(11) -1.88046(10)
H10 H 0.01970 -1.44320 -1.90890
C19 C 0.1857(4) -1.34487(11) -1.87965(9)
C20 C 0.3579(4) -1.31266(10) -1.83384(9)
C21 C 0.4419(4) -1.2373(1) -1.84675(8)
C22 C 0.3094(4) -1.19461(10) -1.89484(8)
C23 C 0.1095(4) -1.22761(11) -1.93354(9)
H11 H 0.01210 -1.19850 -1.96360
C24 C 0.0583(4) -1.30006(12) -1.92755(9)
H12 H -0.06620 -1.32190 -1.95610
C25 C 0.6612(4) -1.20588(10) -1.81618(9)
H13 H 0.75880 -1.23460 -1.78590
C26 C 0.7379(4) -1.13494(10) -1.82893(9)
H14 H 0.88800 -1.11560 -1.80780
C27 C 0.5970(4) -1.09097(11) -1.87270(9)
H15 H 0.64660 -1.04120 -1.87990
C28 C 0.3863(4) -1.11986(10) -1.90530(9)
C29 C 0.2401(4) -1.07380(11) -1.94990(9)
C30 C 0.1167(5) -1.03604(13) -1.98518(11)
H16 H 0.010(4) -1.0058(12) -2.0123(10)
loop_
_geom_bond_atom_site_label_1
_geom_bond_atom_site_label_2
_geom_bond_distance
_geom_bond_site_symmetry_1
_geom_bond_site_symmetry_2
C1 H1 0.955 1_555 1_555
C2 C1 1.177 1_555 1_555
C3 C2 1.442 1_555 1_555
C4 C3 1.380 1_555 1_555
H2 C4 0.950 1_555 1_555
C5 C4 1.397 1_555 1_555
H3 C5 0.950 1_555 1_555
C6 C5 1.372 1_555 1_555
H4 C6 0.949 1_555 1_555
C7 C6 1.414 1_555 1_555
C8 C3 1.429 1_555 1_555
C9 C8 1.425 1_555 1_555
H5 C9 0.951 1_555 1_555
C10 C9 1.347 1_555 1_555
H6 C10 0.950 1_555 1_555
C11 C10 1.423 1_555 1_555
C12 C7 1.453 1_555 1_555
C13 C11 1.422 1_555 1_555
H7 C13 0.949 1_555 1_555
C14 C13 1.348 1_555 1_555
H8 C14 0.951 1_555 1_555
C15 C14 1.418 1_555 1_555
C16 C12 1.450 1_555 1_555
C17 C15 1.422 1_555 1_555
H9 C17 0.950 1_555 1_555
C18 C17 1.350 1_555 1_555
H10 C18 0.950 1_555 1_555
C19 C18 1.421 1_555 1_555
C20 C16 1.451 1_555 1_555
C21 C20 1.459 1_555 1_555
C22 C21 1.419 1_555 1_555
C23 C22 1.425 1_555 1_555
H11 C23 0.949 1_555 1_555
C24 C19 1.426 1_555 1_555
H12 C24 0.950 1_555 1_555
C25 C21 1.408 1_555 1_555
H13 C25 0.949 1_555 1_555
C26 C25 1.372 1_555 1_555
H14 C26 0.950 1_555 1_555
C27 C26 1.396 1_555 1_555
H15 C27 0.951 1_555 1_555
C28 C22 1.430 1_555 1_555
C29 C28 1.443 1_555 1_555
C30 C29 1.177 1_555 1_555
H16 C30 0.951 1_555 1_555
C7 C8 1.421 1_555 1_555
C11 C12 1.418 1_555 1_555
C15 C16 1.419 1_555 1_555
C19 C20 1.410 1_555 1_555
C23 C24 1.347 1_555 1_555
C27 C28 1.374 1_555 1_555
#END
