
#######################################################################
#
#                 Cambridge Crystallographic Data Centre
#                                CCDC
#
#######################################################################
#
# If this CIF has been generated from an entry in the Cambridge
# Structural Database, then it will include bibliographic, chemical,
# crystal, experimental, refinement or atomic coordinate data resulting
# from the CCDC's data processing and validation procedures.
#
#######################################################################

data_CSD_CIF_ZIHVUK
_audit_creation_date 2018-08-21
_audit_creation_method CSD-ConQuest-V1
_database_code_CSD ZIHVUK
_database_code_depnum_ccdc_archive 'CCDC 1843512'
_chemical_formula_sum 'C39 H36'
_chemical_formula_moiety
;
C39 H36
;
_journal_coden_Cambridge 179
_journal_year 2018
_journal_name_full 'Angew.Chem.,Int.Ed. '
loop_
_publ_author_name
"Wenlong Yang"
"R.Bam"
"V.J.Catalano"
"W.A.Chalifoux"
_chemical_name_systematic
;
5-[2-(4-t-butylphenyl)-1-(2,4,6-trimethylphenyl)ethenyl]chrysene
;
_cell_volume   5802.273
_exptl_crystal_colour 'yellow'
_exptl_crystal_density_diffrn 1.155
_exptl_crystal_description 'rod'
_diffrn_ambient_temperature 293
#These two values have been output from a single CSD field.
_refine_ls_R_factor_gt 0.0484
_refine_ls_wR_factor_gt 0.0484
_symmetry_cell_setting orthorhombic
_symmetry_space_group_name_H-M 'P b c a'
_symmetry_Int_Tables_number 61
loop_
_symmetry_equiv_pos_site_id
_symmetry_equiv_pos_as_xyz
1 x,y,z
2 1/2-x,-y,1/2+z
3 -x,1/2+y,1/2-z
4 1/2+x,1/2-y,-z
5 -x,-y,-z
6 -1/2+x,y,-1/2-z
7 x,-1/2-y,-1/2+z
8 -1/2-x,-1/2+y,z
_cell_length_a 18.263(9)
_cell_length_b 9.068(4)
_cell_length_c 35.036(17)
_cell_angle_alpha 90
_cell_angle_beta 90
_cell_angle_gamma 90
_cell_formula_units_Z 8
loop_
_atom_type_symbol
_atom_type_radius_bond
C 0.68
H 0.23
loop_
_atom_site_label
_atom_site_type_symbol
_atom_site_fract_x
_atom_site_fract_y
_atom_site_fract_z
C1 C 0.41225(13) 0.8025(2) 0.70704(6)
C2 C 0.49018(13) 0.7798(2) 0.70018(6)
C3 C 0.54263(14) 0.8734(2) 0.71906(6)
H1 H 0.52590 0.94500 0.73590
C4 C 0.61550(14) 0.8602(2) 0.71295(6)
H2 H 0.64740 0.92700 0.72440
C5 C 0.64448(13) 0.7457(2) 0.68929(6)
C6 C 0.72089(14) 0.7265(3) 0.68562(6)
H3 H 0.75210 0.79080 0.69840
C7 C 0.75055(14) 0.6157(3) 0.66373(6)
H4 H 0.80100 0.60660 0.66100
C8 C 0.70271(13) 0.5165(3) 0.64553(6)
H5 H 0.72190 0.44010 0.63090
C9 C 0.62794(12) 0.5308(2) 0.64907(6)
H6 H 0.59790 0.46130 0.63740
C10 C 0.59481(13) 0.6479(2) 0.66995(6)
C11 C 0.51574(12) 0.6725(2) 0.67349(6)
C12 C 0.46035(12) 0.5945(2) 0.65061(6)
C13 C 0.38761(12) 0.6133(2) 0.65893(6)
H7 H 0.35370 0.55630 0.64570
C14 C 0.36072(13) 0.7154(2) 0.68671(6)
C15 C 0.28463(14) 0.7396(3) 0.69125(6)
H8 H 0.25150 0.68090 0.67800
C16 C 0.25905(15) 0.8489(3) 0.71504(6)
H9 H 0.20900 0.86620 0.71730
C17 C 0.30963(15) 0.9346(3) 0.73607(7)
H10 H 0.29250 1.00760 0.75240
C18 C 0.38365(15) 0.9116(3) 0.73267(6)
H11 H 0.41580 0.96770 0.74730
C19 C 0.47462(11) 0.5034(2) 0.61521(6)
C20 C 0.43399(11) 0.3590(2) 0.61217(6)
C21 C 0.43890(11) 0.2488(2) 0.64094(6)
C22 C 0.39759(12) 0.1195(2) 0.63741(6)
H12 H 0.40130 0.04810 0.65640
C23 C 0.35099(11) 0.0935(2) 0.60651(6)
C24 C 0.34638(12) 0.2034(2) 0.57855(6)
H13 H 0.31560 0.18840 0.55780
C25 C 0.38634(11) 0.3349(2) 0.58063(6)
C26 C 0.48928(13) 0.2629(3) 0.67544(6)
H14 H 0.47470 0.19340 0.69470
H15 H 0.48610 0.36110 0.68550
H16 H 0.53880 0.24300 0.66780
C27 C 0.30724(13) -0.0479(3) 0.60340(7)
H17 H 0.33710 -0.12330 0.59210
H18 H 0.26490 -0.03130 0.58780
H19 H 0.29210 -0.07880 0.62840
C28 C 0.37373(12) 0.4481(2) 0.54919(6)
H20 H 0.41230 0.44110 0.53070
H21 H 0.37340 0.54530 0.56010
H22 H 0.32760 0.42920 0.53700
C29 C 0.51307(11) 0.5537(2) 0.58473(6)
H23 H 0.52060 0.48430 0.56560
C30 C 0.54505(11) 0.7005(2) 0.57688(6)
C31 C 0.60407(12) 0.7111(2) 0.55163(6)
H24 H 0.62590 0.62520 0.54270
C32 C 0.63108(12) 0.8475(2) 0.53954(6)
H25 H 0.67080 0.85030 0.52290
C33 C 0.59961(11) 0.9804(2) 0.55190(5)
C34 C 0.54116(11) 0.9689(2) 0.57788(6)
H26 H 0.51970 1.05480 0.58710
C35 C 0.51442(12) 0.8338(2) 0.59021(6)
H27 H 0.47580 0.83110 0.60750
C36 C 0.62380(12) 1.1331(2) 0.53731(6)
C37 C 0.55817(12) 1.2058(2) 0.51665(6)
H28 H 0.54450 1.14690 0.49500
H29 H 0.57180 1.30270 0.50820
H30 H 0.51750 1.21290 0.53390
C38 C 0.68824(13) 1.1235(3) 0.50898(7)
H31 H 0.72940 1.07780 0.52130
H32 H 0.70150 1.22080 0.50080
H33 H 0.67390 1.06570 0.48730
C39 C 0.64782(14) 1.2304(3) 0.57108(6)
H34 H 0.60810 1.23950 0.58890
H35 H 0.66130 1.32630 0.56190
H36 H 0.68910 1.18590 0.58360
loop_
_geom_bond_atom_site_label_1
_geom_bond_atom_site_label_2
_geom_bond_distance
_geom_bond_site_symmetry_1
_geom_bond_site_symmetry_2
C1 C2 1.458 1_555 1_555
C2 C3 1.441 1_555 1_555
C3 H1 0.929 1_555 1_555
C4 C3 1.353 1_555 1_555
H2 C4 0.931 1_555 1_555
C5 C4 1.430 1_555 1_555
C6 C5 1.412 1_555 1_555
H3 C6 0.930 1_555 1_555
C7 C6 1.375 1_555 1_555
H4 C7 0.930 1_555 1_555
C8 C7 1.407 1_555 1_555
H5 C8 0.930 1_555 1_555
C9 C8 1.377 1_555 1_555
H6 C9 0.930 1_555 1_555
C10 C5 1.438 1_555 1_555
C11 C2 1.428 1_555 1_555
C12 C11 1.472 1_555 1_555
C13 C12 1.371 1_555 1_555
H7 C13 0.930 1_555 1_555
C14 C1 1.420 1_555 1_555
C15 C14 1.416 1_555 1_555
H8 C15 0.930 1_555 1_555
C16 C15 1.377 1_555 1_555
H9 C16 0.931 1_555 1_555
C17 C16 1.414 1_555 1_555
H10 C17 0.929 1_555 1_555
C18 C1 1.435 1_555 1_555
H11 C18 0.931 1_555 1_555
C19 C12 1.513 1_555 1_555
C20 C19 1.509 1_555 1_555
C21 C20 1.422 1_555 1_555
C22 C21 1.400 1_555 1_555
H12 C22 0.931 1_555 1_555
C23 C22 1.397 1_555 1_555
C24 C23 1.400 1_555 1_555
H13 C24 0.929 1_555 1_555
C25 C20 1.423 1_555 1_555
C26 C21 1.524 1_555 1_555
H14 C26 0.961 1_555 1_555
H15 C26 0.959 1_555 1_555
H16 C26 0.960 1_555 1_555
C27 C23 1.515 1_555 1_555
H17 C27 0.960 1_555 1_555
H18 C27 0.959 1_555 1_555
H19 C27 0.960 1_555 1_555
C28 C25 1.523 1_555 1_555
H20 C28 0.959 1_555 1_555
H21 C28 0.961 1_555 1_555
H22 C28 0.960 1_555 1_555
C29 C19 1.357 1_555 1_555
H23 C29 0.930 1_555 1_555
C30 C29 1.479 1_555 1_555
C31 C30 1.398 1_555 1_555
H24 C31 0.929 1_555 1_555
C32 C31 1.397 1_555 1_555
H25 C32 0.931 1_555 1_555
C33 C32 1.404 1_555 1_555
C34 C33 1.407 1_555 1_555
H26 C34 0.930 1_555 1_555
C35 C30 1.411 1_555 1_555
H27 C35 0.930 1_555 1_555
C36 C33 1.541 1_555 1_555
C37 C36 1.548 1_555 1_555
H28 C37 0.961 1_555 1_555
H29 C37 0.960 1_555 1_555
H30 C37 0.960 1_555 1_555
C38 C36 1.542 1_555 1_555
H31 C38 0.961 1_555 1_555
H32 C38 0.959 1_555 1_555
H33 C38 0.959 1_555 1_555
C39 C36 1.540 1_555 1_555
H34 C39 0.961 1_555 1_555
H35 C39 0.959 1_555 1_555
H36 C39 0.961 1_555 1_555
C9 C10 1.424 1_555 1_555
C10 C11 1.466 1_555 1_555
C13 C14 1.430 1_555 1_555
C17 C18 1.373 1_555 1_555
C24 C25 1.400 1_555 1_555
C34 C35 1.388 1_555 1_555
#END
