
#######################################################################
#
#                 Cambridge Crystallographic Data Centre
#                                CCDC
#
#######################################################################
#
# If this CIF has been generated from an entry in the Cambridge
# Structural Database, then it will include bibliographic, chemical,
# crystal, experimental, refinement or atomic coordinate data resulting
# from the CCDC's data processing and validation procedures.
#
#######################################################################

data_CSD_CIF_ZIXMOK
_audit_creation_date 2014-01-13
_audit_creation_method CSD-ConQuest-V1
_database_code_CSD ZIXMOK
_database_code_depnum_ccdc_archive 'CCDC 959732'
_chemical_formula_sum 'C24 H18'
_chemical_formula_moiety
;
C24 H18
;
_journal_coden_Cambridge 1078
_journal_year 2013
_journal_name_full 'CSD Communication(Private Communication) '
loop_
_publ_author_name
"R.K.Dhar"
"P.W.Rabideau"
"F.R.Fronczek"
_chemical_name_systematic
;
7-Phenyl-7,12-dihydropleiadene
;
_cell_volume   3166.101
_exptl_crystal_colour 'colorless'
_exptl_crystal_density_diffrn 1.286
_exptl_special_details
;
contribution from Department of Chemistry, Louisiana State University, Baton 
Rouge, LA, 70803, USA
;
_exptl_crystal_description 'lath'
_exptl_crystal_preparation 'dichloromethane/diethyl ether'
_diffrn_ambient_temperature 100
#These two values have been output from a single CSD field.
_refine_ls_R_factor_gt 0.0507
_refine_ls_wR_factor_gt 0.0507
_symmetry_cell_setting monoclinic
_symmetry_space_group_name_H-M 'C 2/c'
_symmetry_Int_Tables_number 15
loop_
_symmetry_equiv_pos_site_id
_symmetry_equiv_pos_as_xyz
1 x,y,z
2 -x,y,1/2-z
3 1/2+x,1/2+y,z
4 1/2-x,1/2+y,1/2-z
5 -x,-y,-z
6 x,-y,-1/2+z
7 -1/2-x,-1/2-y,-z
8 -1/2+x,-1/2-y,-1/2+z
_cell_length_a 24.043(2)
_cell_length_b 7.4778(7)
_cell_length_c 19.4479(17)
_cell_angle_alpha 90
_cell_angle_beta 115.109(5)
_cell_angle_gamma 90
_cell_formula_units_Z 8
loop_
_atom_type_symbol
_atom_type_radius_bond
C 0.68
H 0.23
loop_
_atom_site_label
_atom_site_type_symbol
_atom_site_fract_x
_atom_site_fract_y
_atom_site_fract_z
C1 C 0.85055(5) 0.28060(16) 0.55948(7)
C2 C 0.88518(5) 0.44028(15) 0.56286(6)
C3 C 0.89986(5) 0.57734(15) 0.61947(7)
C4 C 0.88717(5) 0.56547(15) 0.68984(6)
H1 H 0.91560 0.65410 0.72640
C5 C 0.90441(5) 0.38655(15) 0.73018(6)
C6 C 0.87175(5) 0.23249(15) 0.69508(7)
C7 C 0.82304(5) 0.24326(15) 0.61505(7)
H2 H 0.79370 0.33950 0.61150
H3 H 0.80010 0.12900 0.60150
C8 C 0.84174(6) 0.15550(17) 0.50411(7)
H4 H 0.81930 0.05010 0.50280
C9 C 0.86485(7) 0.17802(19) 0.44907(8)
H5 H 0.85840 0.08820 0.41190
C10 C 0.89641(6) 0.32920(19) 0.44963(7)
H6 H 0.91180 0.34490 0.41240
C11 C 0.90672(5) 0.46363(16) 0.50502(7)
C12 C 0.93730(6) 0.62280(18) 0.50168(7)
H7 H 0.95140 0.63660 0.46320
C13 C 0.94672(6) 0.75640(17) 0.55295(7)
H8 H 0.96520 0.86550 0.54870
C14 C 0.92874(5) 0.73125(16) 0.61244(7)
H9 H 0.93680 0.82350 0.64900
C15 C 0.95252(5) 0.37327(16) 0.80228(7)
H10 H 0.97490 0.47740 0.82640
C16 C 0.96824(6) 0.20887(17) 0.83962(7)
H11 H 1.00190 0.20060 0.88820
C17 C 0.93439(6) 0.05787(16) 0.80544(7)
H12 H 0.94400 -0.05370 0.83120
C18 C 0.88644(6) 0.07006(16) 0.73342(7)
H13 H 0.86340 -0.03380 0.71010
C19 C 0.82250(5) 0.62670(14) 0.67642(7)
C20 C 0.80414(6) 0.61027(17) 0.73520(7)
H14 H 0.83160 0.55950 0.78220
C21 C 0.74645(6) 0.6668(2) 0.72618(8)
H15 H 0.73470 0.65400 0.76680
C22 C 0.70600(6) 0.74174(17) 0.65838(8)
H16 H 0.66630 0.77880 0.65200
C23 C 0.72389(6) 0.76225(17) 0.59987(8)
H17 H 0.69650 0.81510 0.55330
C24 C 0.78201(5) 0.70549(16) 0.60902(7)
H18 H 0.79400 0.72100 0.56870
loop_
_geom_bond_atom_site_label_1
_geom_bond_atom_site_label_2
_geom_bond_distance
_geom_bond_site_symmetry_1
_geom_bond_site_symmetry_2
C1 C2 1.441 1_555 1_555
C2 C3 1.434 1_555 1_555
C3 C4 1.526 1_555 1_555
C4 H1 1.000 1_555 1_555
C5 C4 1.517 1_555 1_555
C6 C5 1.398 1_555 1_555
C7 C1 1.513 1_555 1_555
H2 C7 0.989 1_555 1_555
H3 C7 0.990 1_555 1_555
C8 C1 1.373 1_555 1_555
H4 C8 0.949 1_555 1_555
C9 C8 1.410 1_555 1_555
H5 C9 0.950 1_555 1_555
C10 C9 1.359 1_555 1_555
H6 C10 0.950 1_555 1_555
C11 C2 1.435 1_555 1_555
C12 C11 1.415 1_555 1_555
H7 C12 0.949 1_555 1_555
C13 C12 1.361 1_555 1_555
H8 C13 0.949 1_555 1_555
C14 C3 1.381 1_555 1_555
H9 C14 0.950 1_555 1_555
C15 C5 1.392 1_555 1_555
H10 C15 0.950 1_555 1_555
C16 C15 1.396 1_555 1_555
H11 C16 0.950 1_555 1_555
C17 C16 1.386 1_555 1_555
H12 C17 0.950 1_555 1_555
C18 C6 1.390 1_555 1_555
H13 C18 0.950 1_555 1_555
C19 C4 1.533 1_555 1_555
C20 C19 1.395 1_555 1_555
H14 C20 0.950 1_555 1_555
C21 C20 1.388 1_555 1_555
H15 C21 0.950 1_555 1_555
C22 C21 1.382 1_555 1_555
H16 C22 0.950 1_555 1_555
C23 C22 1.385 1_555 1_555
H17 C23 0.951 1_555 1_555
C24 C19 1.389 1_555 1_555
H18 C24 0.950 1_555 1_555
C6 C7 1.501 1_555 1_555
C10 C11 1.416 1_555 1_555
C13 C14 1.409 1_555 1_555
C17 C18 1.389 1_555 1_555
C23 C24 1.398 1_555 1_555
#END
