
#######################################################################
#
#                 Cambridge Crystallographic Data Centre
#                                CCDC
#
#######################################################################
#
# If this CIF has been generated from an entry in the Cambridge
# Structural Database, then it will include bibliographic, chemical,
# crystal, experimental, refinement or atomic coordinate data resulting
# from the CCDC's data processing and validation procedures.
#
#######################################################################

data_CSD_CIF_ZOTDER
_audit_creation_date 1996-08-20
_audit_creation_method CSD-ConQuest-V1
_database_code_CSD ZOTDER
_chemical_formula_sum 'C36 H28'
_chemical_formula_moiety
;
C36 H28
;
_journal_coden_Cambridge 4
_journal_volume 118
_journal_year 1996
_journal_page_first 1006
_journal_name_full 'J.Am.Chem.Soc. '
loop_
_publ_author_name
"Y.Nakamura"
"T.Tsuihiji"
"T.Mita"
"T.Minowa"
"S.Tobita"
"H.Shizuka"
"J.Nishimura"
_chemical_name_systematic
;
exo,endo-1,2-Ethano-syn-(2.2)(1,6)-phenanthrenophane
;
_chemical_melting_point 523.15
_cell_volume   2355.692
_exptl_crystal_colour 'colorless'
_exptl_crystal_density_diffrn 1.3
_exptl_special_details
;
Melts above 523.15K

;
_diffrn_ambient_temperature ?
_diffrn_special_details
;
The study was carried out at room temperature,in the range 283-303K

;
#These two values have been output from a single CSD field.
_refine_ls_R_factor_gt 0.05
_refine_ls_wR_factor_gt 0.05
_symmetry_cell_setting monoclinic
_symmetry_space_group_name_H-M 'P 21/n'
_symmetry_Int_Tables_number 14
loop_
_symmetry_equiv_pos_site_id
_symmetry_equiv_pos_as_xyz
1 x,y,z
2 1/2-x,1/2+y,1/2-z
3 -x,-y,-z
4 -1/2+x,-1/2-y,-1/2+z
_cell_length_a 10.79(3)
_cell_length_b 8.44(4)
_cell_length_c 26.01(4)
_cell_angle_alpha 90
_cell_angle_beta 96.0(2)
_cell_angle_gamma 90
_cell_formula_units_Z 4
loop_
_atom_type_symbol
_atom_type_radius_bond
C 0.68
H 0.23
loop_
_atom_site_label
_atom_site_type_symbol
_atom_site_fract_x
_atom_site_fract_y
_atom_site_fract_z
C1 C 0.4057(5) 0.4585(6) 0.7849(2)
C2 C 0.2992(4) 0.3813(7) 0.7954(2)
C3 C 0.2785(5) 0.3448(7) 0.8469(2)
C4 C 0.3676(5) 0.3722(7) 0.8863(2)
C5 C 0.4778(4) 0.4504(5) 0.8782(2)
C6 C 0.5811(4) 0.4713(6) 0.9182(2)
C7 C 0.5893(5) 0.3818(6) 0.9648(2)
C8 C 0.6940(5) 0.3904(6) 1.0000(2)
C9 C 0.7850(5) 0.5029(7) 0.9915(2)
C10 C 0.7794(5) 0.5932(7) 0.9473(2)
C11 C 0.6794(5) 0.5724(6) 0.9089(2)
C12 C 0.6845(5) 0.6411(6) 0.8588(2)
C13 C 0.5983(5) 0.6036(6) 0.8200(2)
C14 C 0.4942(4) 0.5058(5) 0.8271(2)
C15 C 0.5777(4) 0.2277(5) 0.7538(2)
C16 C 0.4879(4) 0.1147(6) 0.7567(2)
C17 C 0.4892(4) 0.0088(6) 0.7979(2)
C18 C 0.5812(4) 0.0198(6) 0.8381(2)
C19 C 0.6778(4) 0.1278(5) 0.8370(2)
C20 C 0.7744(4) 0.1446(5) 0.8800(2)
C21 C 0.7541(4) 0.0924(6) 0.9301(2)
C22 C 0.8382(5) 0.1239(6) 0.9721(2)
C23 C 0.9514(5) 0.1945(7) 0.9637(2)
C24 C 0.9746(4) 0.2466(7) 0.9155(2)
C25 C 0.8812(4) 0.2320(6) 0.8738(2)
C26 C 0.8902(4) 0.3152(6) 0.8256(2)
C27 C 0.7922(4) 0.3197(6) 0.7888(2)
C28 C 0.6821(4) 0.2262(5) 0.7925(2)
C29 C 0.4449(5) 0.4766(5) 0.7305(2)
C30 C 0.3627(5) 0.4055(7) 0.6837(2)
C31 C 0.5569(4) 0.3633(6) 0.7166(2)
C32 C 0.4798(5) 0.3298(7) 0.6632(2)
C33 C 0.7231(5) 0.2707(7) 1.0423(2)
C34 C 0.6249(7) 0.162(1) 1.0593(3)
C35 C 0.8003(5) 0.1212(7) 1.0263(2)
C36 C 0.690(1) 0.0193(9) 1.0403(3)
H1 H 0.236(4) 0.342(5) 0.768(1)
H2 H 0.210(4) 0.288(5) 0.853(2)
H3 H 0.355(4) 0.338(5) 0.920(1)
H4 H 0.529(4) 0.302(5) 0.968(2)
H5 H 0.854(4) 0.506(6) 1.018(2)
H6 H 0.842(4) 0.666(5) 0.941(2)
H7 H 0.753(4) 0.706(5) 0.857(2)
H8 H 0.609(4) 0.647(5) 0.784(1)
H9 H 0.422(4) 0.106(5) 0.734(1)
H10 H 0.427(3) -0.080(5) 0.798(1)
H11 H 0.576(3) -0.059(5) 0.869(1)
H12 H 0.681(4) 0.042(5) 0.932(2)
H13 H 1.020(4) 0.196(5) 0.992(2)
H14 H 1.052(4) 0.308(5) 0.911(2)
H15 H 0.964(4) 0.393(5) 0.825(1)
H16 H 0.793(3) 0.396(5) 0.758(1)
H17 H 0.471(4) 0.591(5) 0.721(1)
H18 H 0.309(4) 0.328(6) 0.691(2)
H19 H 0.326(4) 0.504(5) 0.658(2)
H20 H 0.631(4) 0.425(5) 0.712(1)
H21 H 0.517(4) 0.403(5) 0.632(1)
H22 H 0.473(4) 0.214(5) 0.653(2)
H23 H 0.775(4) 0.314(5) 1.071(2)
H24 H 0.611(5) 0.156(7) 1.098(2)
H25 H 0.542(5) 0.192(7) 1.039(2)
H26 H 0.876(4) 0.086(5) 1.053(2)
H27 H 0.675(7) -0.044(8) 1.017(2)
H28 H 0.713(6) -0.060(7) 1.066(2)
loop_
_geom_bond_atom_site_label_1
_geom_bond_atom_site_label_2
_geom_bond_distance
_geom_bond_site_symmetry_1
_geom_bond_site_symmetry_2
C1 C2 1.373 1_555 1_555
C2 C3 1.415 1_555 1_555
C3 C4 1.350 1_555 1_555
C4 C5 1.395 1_555 1_555
C5 C6 1.454 1_555 1_555
C6 C7 1.423 1_555 1_555
C7 C8 1.380 1_555 1_555
C8 C9 1.400 1_555 1_555
C9 C10 1.375 1_555 1_555
C10 C11 1.403 1_555 1_555
C11 C6 1.402 1_555 1_555
C12 C11 1.433 1_555 1_555
C13 C12 1.337 1_555 1_555
C14 C1 1.434 1_555 1_555
C15 C16 1.367 1_555 1_555
C16 C17 1.394 1_555 1_555
C17 C18 1.368 1_555 1_555
C18 C19 1.387 1_555 1_555
C19 C20 1.454 1_555 1_555
C20 C21 1.414 1_555 1_555
C21 C22 1.371 1_555 1_555
C22 C23 1.397 1_555 1_555
C23 C24 1.376 1_555 1_555
C24 C25 1.407 1_555 1_555
C25 C20 1.392 1_555 1_555
C26 C25 1.449 1_555 1_555
C27 C26 1.351 1_555 1_555
C28 C15 1.430 1_555 1_555
C29 C1 1.526 1_555 1_555
C30 C29 1.550 1_555 1_555
C31 C15 1.500 1_555 1_555
C32 C30 1.559 1_555 1_555
C33 C8 1.502 1_555 1_555
C34 C33 1.503 1_555 1_555
C35 C22 1.509 1_555 1_555
C36 C34 1.504 1_555 1_555
H1 C2 0.991 1_555 1_555
H2 C3 0.909 1_555 1_555
H3 C4 0.946 1_555 1_555
H4 C7 0.946 1_555 1_555
H5 C9 0.961 1_555 1_555
H6 C10 0.940 1_555 1_555
H7 C12 0.925 1_555 1_555
H8 C13 1.023 1_555 1_555
H9 C16 0.879 1_555 1_555
H10 C17 1.006 1_555 1_555
H11 C18 1.049 1_555 1_555
H12 C21 0.902 1_555 1_555
H13 C23 0.988 1_555 1_555
H14 C24 1.000 1_555 1_555
H15 C26 1.033 1_555 1_555
H16 C27 1.029 1_555 1_555
H17 C29 1.043 1_555 1_555
H18 C30 0.907 1_555 1_555
H19 C30 1.113 1_555 1_555
H20 C31 0.972 1_555 1_555
H21 C32 1.127 1_555 1_555
H22 C32 1.013 1_555 1_555
H23 C33 0.958 1_555 1_555
H24 C34 1.034 1_555 1_555
H25 C34 1.022 1_555 1_555
H26 C35 1.058 1_555 1_555
H27 C36 0.811 1_555 1_555
H28 C36 0.960 1_555 1_555
C5 C14 1.437 1_555 1_555
C13 C14 1.421 1_555 1_555
C19 C28 1.429 1_555 1_555
C27 C28 1.438 1_555 1_555
C29 C31 1.611 1_555 1_555
C31 C32 1.568 1_555 1_555
C33 C35 1.591 1_555 1_555
C35 C36 1.542 1_555 1_555
#END
