
#######################################################################
#
#                 Cambridge Crystallographic Data Centre
#                                CCDC
#
#######################################################################
#
# If this CIF has been generated from an entry in the Cambridge
# Structural Database, then it will include bibliographic, chemical,
# crystal, experimental, refinement or atomic coordinate data resulting
# from the CCDC's data processing and validation procedures.
#
#######################################################################

data_CSD_CIF_ZUNLOL02
_audit_creation_date 2016-11-16
_audit_creation_method CSD-ConQuest-V1
_database_code_CSD ZUNLOL02
_database_code_depnum_ccdc_archive 'CCDC 882939'
_chemical_formula_sum 'C26 H18'
_chemical_formula_moiety
;
C26 H18
;
_journal_coden_Cambridge 1078
_journal_year 2016
_journal_name_full 'CSD Communication(Private Communication) '
loop_
_publ_author_name
"L.R.Gomes"
"J.N.Low"
_chemical_name_systematic
;
9-(biphenyl-4-yl)anthracene
;
_cell_volume   1772.307
_exptl_crystal_colour 'colorless'
_exptl_crystal_density_diffrn 1.238
_exptl_special_details
;
triclinic polymorph

;
_exptl_crystal_description 'plate'
_diffrn_ambient_temperature 150
#These two values have been output from a single CSD field.
_refine_ls_R_factor_gt 0.0402
_refine_ls_wR_factor_gt 0.0402
_symmetry_cell_setting triclinic
_symmetry_space_group_name_H-M 'P -1'
_symmetry_Int_Tables_number 2
loop_
_symmetry_equiv_pos_site_id
_symmetry_equiv_pos_as_xyz
1 x,y,z
2 -x,-y,-z
_cell_length_a 9.6463(4)
_cell_length_b 11.0516(4)
_cell_length_c 16.9487(7)
_cell_angle_alpha 90.652(2)
_cell_angle_beta 99.655(2)
_cell_angle_gamma 95.518(2)
_cell_formula_units_Z 4
loop_
_atom_type_symbol
_atom_type_radius_bond
C 0.68
H 0.23
loop_
_atom_site_label
_atom_site_type_symbol
_atom_site_fract_x
_atom_site_fract_y
_atom_site_fract_z
C1 C 0.62073(13) 0.13316(12) 0.42497(8)
H1 H 0.60580 0.06580 0.38820
C2 C 0.66264(14) 0.11478(13) 0.50449(8)
H2 H 0.67600 0.03490 0.52230
C3 C 0.68656(14) 0.21339(14) 0.56082(8)
H3 H 0.71310 0.19910 0.61620
C4 C 0.67165(13) 0.32803(12) 0.53578(7)
H4 H 0.69020 0.39370 0.57390
C5 C 0.62853(11) 0.35211(11) 0.45309(7)
C6 C 0.55454(12) 0.61476(11) 0.32093(7)
H5 H 0.57700 0.68060 0.35890
C7 C 0.50876(13) 0.63760(12) 0.24276(8)
H6 H 0.49980 0.71880 0.22630
C8 C 0.47437(12) 0.53963(12) 0.18573(7)
H7 H 0.44180 0.55590 0.13120
C9 C 0.48732(11) 0.42309(12) 0.20790(7)
H8 H 0.46350 0.35930 0.16850
C10 C 0.53625(11) 0.39414(11) 0.28954(6)
C11 C 0.55017(11) 0.27422(11) 0.31465(6)
C12 C 0.59897(11) 0.25176(11) 0.39612(7)
C13 C 0.61402(12) 0.46978(11) 0.42754(7)
H9 H 0.63490 0.53550 0.46560
C14 C 0.56945(11) 0.49374(11) 0.34705(7)
C15 C 0.39590(12) 0.08495(11) 0.25907(7)
H10 H 0.33850 0.09500 0.29860
C16 C 0.51243(12) 0.16936(11) 0.25599(7)
C17 C 0.36293(12) -0.01319(11) 0.20538(7)
H11 H 0.28350 -0.06960 0.20870
C18 C 0.44529(11) -0.03037(10) 0.14623(6)
C19 C 0.56053(12) 0.05508(11) 0.14282(7)
H12 H 0.61720 0.04600 0.10280
C20 C 0.59353(12) 0.15273(11) 0.19678(7)
H13 H 0.67280 0.20930 0.19340
C21 C 0.41222(11) -0.13505(10) 0.08808(6)
C22 C 0.27288(12) -0.18173(11) 0.05887(7)
H14 H 0.19730 -0.14810 0.07790
C23 C 0.24386(13) -0.27651(11) 0.00246(7)
H15 H 0.14860 -0.30630 -0.01750
C24 C 0.35283(13) -0.32817(11) -0.02506(7)
H16 H 0.33250 -0.39290 -0.06390
C25 C 0.49171(13) -0.28469(11) 0.00461(7)
H17 H 0.56700 -0.32040 -0.01340
C26 C 0.52088(12) -0.18914(11) 0.06048(7)
H18 H 0.61640 -0.15990 0.08030
C27 C 0.99343(14) 0.86379(13) 0.28233(7)
H19 H 1.01270 0.79530 0.31420
C28 C 1.00235(16) 0.97535(14) 0.31819(8)
H20 H 1.02770 0.98390 0.37470
C29 C 0.97429(15) 1.07892(14) 0.27229(9)
H21 H 0.98010 1.15630 0.29830
C30 C 0.93917(13) 1.06857(12) 0.19146(8)
H22 H 0.92160 1.13910 0.16130
C31 C 0.92820(11) 0.95285(11) 0.15091(7)
C32 C 0.84137(12) 0.81401(12) -0.05637(7)
H23 H 0.82520 0.88390 -0.08740
C33 C 0.82924(12) 0.70310(12) -0.09368(7)
H24 H 0.80730 0.69640 -0.15040
C34 C 0.84915(12) 0.59759(12) -0.04848(7)
H25 H 0.83760 0.52020 -0.07510
C35 C 0.88481(11) 0.60563(11) 0.03292(7)
H26 H 0.89820 0.53370 0.06230
C36 C 0.90237(10) 0.7206(1) 0.07470(6)
C37 C 0.94341(11) 0.73223(11) 0.15849(7)
C38 C 0.95541(11) 0.84742(11) 0.19717(7)
C39 C 0.89181(12) 0.94018(11) 0.06802(7)
H27 H 0.87590 1.01050 0.03740
C40 C 0.87807(11) 0.82712(11) 0.02889(7)
C41 C 0.97977(11) 0.62541(11) 0.20822(6)
C42 C 1.12013(11) 0.60069(11) 0.22840(6)
H28 H 1.19050 0.64470 0.20410
C43 C 1.15866(11) 0.51309(11) 0.28327(6)
H29 H 1.25490 0.49740 0.29560
C44 C 1.05832(11) 0.44732(10) 0.32091(6)
C45 C 0.91675(12) 0.46694(12) 0.29646(8)
H30 H 0.84560 0.41950 0.31820
C46 C 0.87802(12) 0.55398(12) 0.24125(8)
H31 H 0.78090 0.56530 0.22570
C47 C 1.10033(11) 0.36419(10) 0.38698(7)
C48 C 1.01879(14) 0.34491(13) 0.44721(8)
H32 H 0.93610 0.38560 0.44580
C49 C 1.05655(15) 0.26740(15) 0.50893(9)
H33 H 0.99930 0.25510 0.54920
C50 C 1.17659(14) 0.20771(13) 0.51262(8)
H34 H 1.20170 0.15400 0.55480
C51 C 1.25995(13) 0.22702(11) 0.45418(8)
H35 H 1.34360 0.18730 0.45670
C52 C 1.22213(12) 0.30397(11) 0.39197(7)
H36 H 1.28000 0.31600 0.35200
loop_
_geom_bond_atom_site_label_1
_geom_bond_atom_site_label_2
_geom_bond_distance
_geom_bond_site_symmetry_1
_geom_bond_site_symmetry_2
C1 H1 0.950 1_555 1_555
C2 C1 1.364 1_555 1_555
H2 C2 0.950 1_555 1_555
C3 C2 1.416 1_555 1_555
H3 C3 0.950 1_555 1_555
C4 C3 1.354 1_555 1_555
H4 C4 0.950 1_555 1_555
C5 C4 1.429 1_555 1_555
C6 H5 0.950 1_555 1_555
C7 C6 1.359 1_555 1_555
H6 C7 0.950 1_555 1_555
C8 C7 1.420 1_555 1_555
H7 C8 0.950 1_555 1_555
C9 C8 1.357 1_555 1_555
H8 C9 0.950 1_555 1_555
C10 C9 1.435 1_555 1_555
C11 C10 1.408 1_555 1_555
C12 C1 1.426 1_555 1_555
C13 C5 1.388 1_555 1_555
H9 C13 0.950 1_555 1_555
C14 C6 1.426 1_555 1_555
C15 H10 0.950 1_555 1_555
C16 C11 1.495 1_555 1_555
C17 C15 1.386 1_555 1_555
H11 C17 0.950 1_555 1_555
C18 C17 1.401 1_555 1_555
C19 C18 1.397 1_555 1_555
H12 C19 0.950 1_555 1_555
C20 C16 1.393 1_555 1_555
H13 C20 0.950 1_555 1_555
C21 C18 1.486 1_555 1_555
C22 C21 1.398 1_555 1_555
H14 C22 0.950 1_555 1_555
C23 C22 1.386 1_555 1_555
H15 C23 0.950 1_555 1_555
C24 C23 1.386 1_555 1_555
H16 C24 0.950 1_555 1_555
C25 C24 1.387 1_555 1_555
H17 C25 0.950 1_555 1_555
C26 C21 1.398 1_555 1_555
H18 C26 0.950 1_555 1_555
C27 H19 0.950 1_555 1_555
C28 C27 1.357 1_555 1_555
H20 C28 0.949 1_555 1_555
C29 C28 1.413 1_555 1_555
H21 C29 0.950 1_555 1_555
C30 C29 1.356 1_555 1_555
H22 C30 0.950 1_555 1_555
C31 C30 1.431 1_555 1_555
C32 H23 0.950 1_555 1_555
C33 C32 1.359 1_555 1_555
H24 C33 0.950 1_555 1_555
C34 C33 1.413 1_555 1_555
H25 C34 0.951 1_555 1_555
C35 C34 1.364 1_555 1_555
H26 C35 0.951 1_555 1_555
C36 C35 1.429 1_555 1_555
C37 C36 1.410 1_555 1_555
C38 C27 1.433 1_555 1_555
C39 C31 1.392 1_555 1_555
H27 C39 0.950 1_555 1_555
C40 C32 1.431 1_555 1_555
C41 C37 1.493 1_555 1_555
C42 C41 1.394 1_555 1_555
H28 C42 0.950 1_555 1_555
C43 C42 1.383 1_555 1_555
H29 C43 0.950 1_555 1_555
C44 C43 1.398 1_555 1_555
C45 C44 1.397 1_555 1_555
H30 C45 0.950 1_555 1_555
C46 C41 1.395 1_555 1_555
H31 C46 0.950 1_555 1_555
C47 C44 1.485 1_555 1_555
C48 C47 1.396 1_555 1_555
H32 C48 0.950 1_555 1_555
C49 C48 1.383 1_555 1_555
H33 C49 0.950 1_555 1_555
C50 C49 1.380 1_555 1_555
H34 C50 0.949 1_555 1_555
C51 C50 1.383 1_555 1_555
H35 C51 0.950 1_555 1_555
C52 C47 1.396 1_555 1_555
H36 C52 0.950 1_555 1_555
C5 C12 1.437 1_555 1_555
C10 C14 1.438 1_555 1_555
C11 C12 1.415 1_555 1_555
C13 C14 1.396 1_555 1_555
C15 C16 1.398 1_555 1_555
C19 C20 1.384 1_555 1_555
C25 C26 1.386 1_555 1_555
C31 C38 1.432 1_555 1_555
C36 C40 1.434 1_555 1_555
C37 C38 1.411 1_555 1_555
C39 C40 1.392 1_555 1_555
C45 C46 1.383 1_555 1_555
C51 C52 1.385 1_555 1_555
#END
