
#######################################################################
#
#                 Cambridge Crystallographic Data Centre
#                                CCDC
#
#######################################################################
#
# If this CIF has been generated from an entry in the Cambridge
# Structural Database, then it will include bibliographic, chemical,
# crystal, experimental, refinement or atomic coordinate data resulting
# from the CCDC's data processing and validation procedures.
#
#######################################################################

data_CSD_CIF_ZUNLOL01
_audit_creation_date 2016-11-16
_audit_creation_method CSD-ConQuest-V1
_database_code_CSD ZUNLOL01
_database_code_depnum_ccdc_archive 'CCDC 894947'
_chemical_formula_sum 'C26 H18'
_chemical_formula_moiety
;
C26 H18
;
_journal_coden_Cambridge 1078
_journal_year 2016
_journal_name_full 'CSD Communication(Private Communication) '
loop_
_publ_author_name
"L.R.Gomes"
"J.N.Low"
_chemical_name_systematic
;
9-(biphenyl-4-yl)anthracene
;
_cell_volume   1794.592
_exptl_crystal_colour 'colorless'
_exptl_crystal_density_diffrn 1.223
_exptl_crystal_description 'plate'
_diffrn_ambient_temperature 296
#These two values have been output from a single CSD field.
_refine_ls_R_factor_gt 0.0417
_refine_ls_wR_factor_gt 0.0417
_symmetry_cell_setting monoclinic
_symmetry_space_group_name_H-M 'P 21/n'
_symmetry_Int_Tables_number 14
loop_
_symmetry_equiv_pos_site_id
_symmetry_equiv_pos_as_xyz
1 x,y,z
2 1/2-x,1/2+y,1/2-z
3 -x,-y,-z
4 -1/2+x,-1/2-y,-1/2+z
_cell_length_a 10.5117(12)
_cell_length_b 7.5373(8)
_cell_length_c 22.705(2)
_cell_angle_alpha 90
_cell_angle_beta 93.972(6)
_cell_angle_gamma 90
_cell_formula_units_Z 4
loop_
_atom_type_symbol
_atom_type_radius_bond
C 0.68
H 0.23
loop_
_atom_site_label
_atom_site_type_symbol
_atom_site_fract_x
_atom_site_fract_y
_atom_site_fract_z
C1 C 0.06112(12) -0.14869(18) 0.60968(6)
H1 H 0.06500 -0.05550 0.58300
C2 C -0.05208(14) -0.2300(2) 0.61633(7)
H2 H -0.12440 -0.19220 0.59390
C3 C -0.06190(14) -0.3705(2) 0.65660(7)
H3 H -0.14040 -0.42440 0.66070
C4 C 0.04224(14) -0.42726(19) 0.68929(6)
H4 H 0.03440 -0.51950 0.71600
C5 C 0.16439(12) -0.34833(16) 0.68371(5)
C6 C 0.50588(14) -0.4027(2) 0.73850(6)
H5 H 0.50030 -0.49740 0.76450
C7 C 0.62071(15) -0.3291(2) 0.73101(7)
H6 H 0.69320 -0.37380 0.75160
C8 C 0.63153(13) -0.1844(2) 0.69205(6)
H7 H 0.71120 -0.13470 0.68740
C9 C 0.52732(12) -0.11741(18) 0.66147(6)
H8 H 0.53640 -0.02170 0.63630
C10 C 0.40369(11) -0.19125(15) 0.66726(5)
C11 C 0.29400(11) -0.12492(15) 0.63596(5)
C12 C 0.17430(11) -0.20389(15) 0.64293(5)
C13 C 0.27349(13) -0.41063(17) 0.71481(5)
H9 H 0.26660 -0.50340 0.74140
C14 C 0.39306(12) -0.33803(16) 0.70731(5)
C15 C 0.30120(11) 0.03224(15) 0.59612(5)
C16 C 0.25924(16) 0.19675(18) 0.61405(6)
H10 H 0.23250 0.21010 0.65200
C17 C 0.25644(17) 0.34131(18) 0.57644(6)
H11 H 0.22780 0.45020 0.58950
C18 C 0.29558(12) 0.32668(16) 0.51941(5)
C19 C 0.34086(11) 0.16318(16) 0.50220(5)
H12 H 0.37020 0.15080 0.46470
C20 C 0.34331(11) 0.01797(16) 0.53966(5)
H13 H 0.37350 -0.09040 0.52690
C21 C 0.28455(12) 0.48023(16) 0.47824(5)
C22 C 0.18016(15) 0.59346(19) 0.47843(7)
H14 H 0.11880 0.57540 0.50540
C23 C 0.16693(18) 0.7330(2) 0.43874(8)
H15 H 0.09640 0.80740 0.43910
C24 C 0.2571(2) 0.7622(2) 0.39891(7)
H16 H 0.24740 0.85560 0.37220
C25 C 0.36157(19) 0.6535(2) 0.39856(7)
H17 H 0.42330 0.67410 0.37190
C26 C 0.37547(15) 0.5127(2) 0.43782(6)
H18 H 0.44640 0.43910 0.43710
loop_
_geom_bond_atom_site_label_1
_geom_bond_atom_site_label_2
_geom_bond_distance
_geom_bond_site_symmetry_1
_geom_bond_site_symmetry_2
C1 H1 0.930 1_555 1_555
C2 C1 1.356 1_555 1_555
H2 C2 0.930 1_555 1_555
C3 C2 1.408 1_555 1_555
H3 C3 0.930 1_555 1_555
C4 C3 1.349 1_555 1_555
H4 C4 0.930 1_555 1_555
C5 C4 1.429 1_555 1_555
C6 H5 0.931 1_555 1_555
C7 C6 1.350 1_555 1_555
H6 C7 0.929 1_555 1_555
C8 C7 1.414 1_555 1_555
H7 C8 0.930 1_555 1_555
C9 C8 1.353 1_555 1_555
H8 C9 0.929 1_555 1_555
C10 C9 1.428 1_555 1_555
C11 C10 1.404 1_555 1_555
C12 C1 1.426 1_555 1_555
C13 C5 1.386 1_555 1_555
H9 C13 0.930 1_555 1_555
C14 C6 1.424 1_555 1_555
C15 C11 1.496 1_555 1_555
C16 C15 1.387 1_555 1_555
H10 C16 0.930 1_555 1_555
C17 C16 1.383 1_555 1_555
H11 C17 0.930 1_555 1_555
C18 C17 1.390 1_555 1_555
C19 C18 1.387 1_555 1_555
H12 C19 0.930 1_555 1_555
C20 C15 1.389 1_555 1_555
H13 C20 0.930 1_555 1_555
C21 C18 1.487 1_555 1_555
C22 C21 1.390 1_555 1_555
H14 C22 0.930 1_555 1_555
C23 C22 1.386 1_555 1_555
H15 C23 0.930 1_555 1_555
C24 C23 1.372 1_555 1_555
H16 C24 0.930 1_555 1_555
C25 C24 1.371 1_555 1_555
H17 C25 0.931 1_555 1_555
C26 C21 1.392 1_555 1_555
H18 C26 0.930 1_555 1_555
C5 C12 1.438 1_555 1_555
C10 C14 1.441 1_555 1_555
C11 C12 1.411 1_555 1_555
C13 C14 1.392 1_555 1_555
C19 C20 1.385 1_555 1_555
C25 C26 1.387 1_555 1_555
#END
