
#######################################################################
#
#                 Cambridge Crystallographic Data Centre
#                                CCDC
#
#######################################################################
#
# If this CIF has been generated from an entry in the Cambridge
# Structural Database, then it will include bibliographic, chemical,
# crystal, experimental, refinement or atomic coordinate data resulting
# from the CCDC's data processing and validation procedures.
#
#######################################################################

data_CSD_CIF_ZUNLOL
_audit_creation_date 2015-09-02
_audit_creation_method CSD-ConQuest-V1
_database_code_CSD ZUNLOL
_database_code_depnum_ccdc_archive 'CCDC 1412159'
_chemical_formula_sum 'C26 H18'
_chemical_formula_moiety
;
C26 H18
;
_journal_coden_Cambridge 1748
_journal_volume 2
_journal_year 2015
_journal_page_first 1397
_journal_name_full 'Org.Chem.Front. '
loop_
_publ_author_name
"V.M.Zende"
"C.Schulzke"
"A.R.Kapdi"
_chemical_name_systematic
;
9-(Biphenyl-4-yl)anthracene
;
_cell_volume   1762.689
_exptl_crystal_colour 'colorless'
_exptl_crystal_density_diffrn 1.245
_exptl_special_details
;
monoclinic polymorph

;
_exptl_crystal_description 'prism'
_diffrn_ambient_temperature 170
#These two values have been output from a single CSD field.
_refine_ls_R_factor_gt 0.0478
_refine_ls_wR_factor_gt 0.0478
_symmetry_cell_setting monoclinic
_symmetry_space_group_name_H-M 'P 21/n'
_symmetry_Int_Tables_number 14
loop_
_symmetry_equiv_pos_site_id
_symmetry_equiv_pos_as_xyz
1 x,y,z
2 1/2-x,1/2+y,1/2-z
3 -x,-y,-z
4 -1/2+x,-1/2-y,-1/2+z
_cell_length_a 10.441(2)
_cell_length_b 7.4965(15)
_cell_length_c 22.577(5)
_cell_angle_alpha 90
_cell_angle_beta 94.06(3)
_cell_angle_gamma 90
_cell_formula_units_Z 4
loop_
_atom_type_symbol
_atom_type_radius_bond
C 0.68
H 0.23
loop_
_atom_site_label
_atom_site_type_symbol
_atom_site_fract_x
_atom_site_fract_y
_atom_site_fract_z
C1 C 0.17254(16) 0.7076(2) 0.64257(7)
C2 C 0.05864(17) 0.6513(2) 0.60893(8)
H1 H 0.06280 0.55540 0.58160
C3 C -0.05540(17) 0.7330(3) 0.61553(9)
H2 H -0.12980 0.69410 0.59250
C4 C -0.06544(18) 0.8754(3) 0.65628(9)
H3 H -0.14610 0.93080 0.66040
C5 C 0.03966(17) 0.9322(2) 0.68918(8)
H4 H 0.03170 1.02690 0.71670
C6 C 0.16283(17) 0.8528(2) 0.68355(8)
C7 C 0.27285(17) 0.9162(2) 0.71506(7)
H5 H 0.26580 1.01150 0.74240
C8 C 0.39325(16) 0.8426(2) 0.70730(7)
C9 C 0.50677(18) 0.9088(3) 0.73898(8)
H6 H 0.50080 1.00570 0.76580
C10 C 0.62292(18) 0.8349(3) 0.73128(8)
H7 H 0.69760 0.88120 0.75230
C11 C 0.63352(17) 0.6892(3) 0.69210(8)
H8 H 0.71550 0.63840 0.68720
C12 C 0.52834(16) 0.6211(2) 0.66136(8)
H9 H 0.53760 0.52230 0.63560
C13 C 0.40376(16) 0.6957(2) 0.66707(7)
C14 C 0.29319(16) 0.6281(2) 0.63562(7)
C15 C 0.30000(15) 0.4703(2) 0.59565(7)
C16 C 0.2564(2) 0.3050(3) 0.61359(8)
H10 H 0.22800 0.29200 0.65240
C17 C 0.2536(2) 0.1597(3) 0.57611(8)
H11 H 0.22270 0.04850 0.58940
C18 C 0.29545(16) 0.1732(2) 0.51905(7)
C19 C 0.34241(15) 0.3372(2) 0.50170(7)
H12 H 0.37380 0.34910 0.46340
C20 C 0.34434(15) 0.4835(2) 0.53919(7)
H13 H 0.37640 0.59440 0.52620
C21 C 0.28545(16) 0.0185(2) 0.47787(7)
C22 C 0.18007(18) -0.0963(2) 0.47773(9)
H14 H 0.11650 -0.07780 0.50520
C23 C 0.1673(2) -0.2367(3) 0.4380(1)
H15 H 0.09460 -0.31290 0.43800
C24 C 0.2596(2) -0.2665(3) 0.39847(9)
H16 H 0.25040 -0.36300 0.37120
C25 C 0.3654(2) -0.1564(3) 0.39847(9)
H17 H 0.42970 -0.17800 0.37160
C26 C 0.37806(18) -0.0143(3) 0.43769(8)
H18 H 0.45080 0.06180 0.43720
loop_
_geom_bond_atom_site_label_1
_geom_bond_atom_site_label_2
_geom_bond_distance
_geom_bond_site_symmetry_1
_geom_bond_site_symmetry_2
C1 C2 1.429 1_555 1_555
C2 H1 0.950 1_555 1_555
C3 C2 1.357 1_555 1_555
H2 C3 0.950 1_555 1_555
C4 C3 1.418 1_555 1_555
H3 C4 0.949 1_555 1_555
C5 C4 1.350 1_555 1_555
H4 C5 0.951 1_555 1_555
C6 C1 1.437 1_555 1_555
C7 C6 1.391 1_555 1_555
H5 C7 0.950 1_555 1_555
C8 C7 1.395 1_555 1_555
C9 C8 1.429 1_555 1_555
H6 C9 0.951 1_555 1_555
C10 C9 1.356 1_555 1_555
H7 C10 0.949 1_555 1_555
C11 C10 1.415 1_555 1_555
H8 C11 0.950 1_555 1_555
C12 C11 1.357 1_555 1_555
H9 C12 0.951 1_555 1_555
C13 C8 1.437 1_555 1_555
C14 C1 1.412 1_555 1_555
C15 C14 1.493 1_555 1_555
C16 C15 1.390 1_555 1_555
H10 C16 0.950 1_555 1_555
C17 C16 1.378 1_555 1_555
H11 C17 0.950 1_555 1_555
C18 C17 1.393 1_555 1_555
C19 C18 1.390 1_555 1_555
H12 C19 0.950 1_555 1_555
C20 C15 1.390 1_555 1_555
H13 C20 0.950 1_555 1_555
C21 C18 1.485 1_555 1_555
C22 C21 1.397 1_555 1_555
H14 C22 0.950 1_555 1_555
C23 C22 1.383 1_555 1_555
H15 C23 0.950 1_555 1_555
C24 C23 1.377 1_555 1_555
H16 C24 0.950 1_555 1_555
C25 C24 1.379 1_555 1_555
H17 C25 0.950 1_555 1_555
C26 C21 1.394 1_555 1_555
H18 C26 0.951 1_555 1_555
C5 C6 1.431 1_555 1_555
C12 C13 1.430 1_555 1_555
C13 C14 1.406 1_555 1_555
C19 C20 1.385 1_555 1_555
C25 C26 1.386 1_555 1_555
#END
