
#######################################################################
#
#                 Cambridge Crystallographic Data Centre
#                                CCDC
#
#######################################################################
#
# If this CIF has been generated from an entry in the Cambridge
# Structural Database, then it will include bibliographic, chemical,
# crystal, experimental, refinement or atomic coordinate data resulting
# from the CCDC's data processing and validation procedures.
#
#######################################################################

data_CSD_CIF_ZZZDKE02
_audit_creation_date 2012-12-31
_audit_creation_method CSD-ConQuest-V1
_database_code_CSD ZZZDKE02
_database_code_depnum_ccdc_archive 'CCDC 847357'
_chemical_formula_sum 'C26 H16'
_chemical_formula_moiety
;
C26 H16
;
_journal_coden_Cambridge 1441
_journal_volume 4
_journal_year 2012
_journal_page_first 574
_journal_name_full 'Nature Chemistry '
loop_
_publ_author_name
"M.Watanabe"
"Yuan Jay Chang"
"Shun-Wei Liu"
"Ting-Han Chao"
"K.Goto"
"Md.M.Islam"
"C.-H.Yuan"
"Yu-Tai Tao"
"T.Shinmyozu"
"T.J.Chow"
_chemical_name_systematic
;
Hexacene
;
_cell_volume    779.497
_exptl_crystal_colour 'blue'
_exptl_crystal_density_diffrn 1.399
_exptl_special_details
;
light- and oxygen-sensitive

;
_exptl_crystal_description 'platelet'
_diffrn_ambient_temperature 123
_diffrn_radiation_source 'Cu Kalpha radiation'
#These two values have been output from a single CSD field.
_refine_ls_R_factor_gt 0.094
_refine_ls_wR_factor_gt 0.094
_symmetry_cell_setting triclinic
_symmetry_space_group_name_H-M 'P -1'
_symmetry_Int_Tables_number 2
loop_
_symmetry_equiv_pos_site_id
_symmetry_equiv_pos_as_xyz
1 x,y,z
2 -x,-y,-z
_cell_length_a 6.292(4)
_cell_length_b 7.673(4)
_cell_length_c 16.424(8)
_cell_angle_alpha 98.66(4)
_cell_angle_beta 91.16(4)
_cell_angle_gamma 95.71(4)
_cell_formula_units_Z 2
loop_
_atom_type_symbol
_atom_type_radius_bond
C 0.68
H 0.23
loop_
_atom_site_label
_atom_site_type_symbol
_atom_site_fract_x
_atom_site_fract_y
_atom_site_fract_z
C1 C 0.9526(10) 0.1130(7) 0.1923(4)
C2 C 0.9161(11) 0.0702(8) 0.1095(5)
C3 C 0.7323(12) 0.1215(8) 0.0744(4)
C4 C 0.5856(10) 0.2081(7) 0.1207(4)
C5 C 0.6186(11) 0.2565(8) 0.2091(4)
C6 C 0.8090(11) 0.2064(7) 0.2458(5)
C7 C 0.8418(10) 0.2509(7) 0.3300(4)
C8 C 0.7029(11) 0.3428(8) 0.3831(4)
C9 C 0.5099(11) 0.3918(7) 0.3449(4)
C10 C 0.4773(9) 0.3488(7) 0.2594(4)
C11 C 0.7367(9) 0.3847(7) 0.4681(4)
C12 C 0.5966(8) 0.4752(7) 0.5195(4)
C13 C 0.3700(9) 0.4818(7) 0.3956(4)
C14 C 0.0619(10) -0.4288(7) 0.1435(4)
C15 C 0.2124(11) -0.4437(8) 0.0849(4)
C16 C 0.4180(11) -0.3440(8) 0.0975(4)
C17 C 0.4621(10) -0.2375(8) 0.1701(4)
C18 C 0.3135(12) -0.2152(9) 0.2348(4)
C19 C 0.1040(12) -0.3190(8) 0.2195(4)
C20 C -0.0408(10) -0.2975(7) 0.2809(4)
C21 C 0.0004(11) -0.1872(8) 0.3560(4)
C22 C 0.2089(12) -0.0838(8) 0.3713(4)
C23 C 0.3574(10) -0.1049(7) 0.3084(4)
C24 C 0.2523(9) 0.0294(7) 0.4459(4)
C25 C 0.1039(8) 0.0518(7) 0.5077(4)
C26 C -0.1469(10) -0.1651(7) 0.4178(4)
H1 H 1.07880 0.07980 0.21590
H2 H 1.01320 0.00670 0.07620
H3 H 0.70860 0.09520 0.01630
H4 H 0.46050 0.23680 0.09460
H5 H 0.96710 0.21730 0.35400
H6 H 0.35400 0.38390 0.23450
H7 H -0.28380 -0.23050 0.40870
H8 H 0.86120 0.35010 0.49220
H9 H 0.24550 0.51590 0.37110
H10 H -0.07450 -0.49430 0.13250
H11 H 0.49450 -0.03970 0.31740
H12 H 0.18000 -0.52200 0.03470
H13 H 0.52060 -0.35270 0.05580
H14 H 0.59980 -0.17340 0.17890
H15 H -0.17800 -0.36230 0.27140
H16 H 0.38950 0.09440 0.45500
C1A C 0.0474(10) 0.8870(7) 0.8077(4)
C2A C 0.0839(11) 0.9298(8) 0.8905(5)
C3A C 0.2677(12) 0.8785(8) 0.9256(4)
C4A C 0.4144(10) 0.7919(7) 0.8793(4)
C5A C 0.3814(11) 0.7435(8) 0.7909(4)
C6A C 0.1910(11) 0.7936(7) 0.7542(5)
C7A C 0.1582(10) 0.7491(7) 0.6700(4)
C8A C 0.2971(11) 0.6572(8) 0.6169(4)
C9A C 0.4901(11) 0.6082(7) 0.6551(4)
C10A C 0.5227(9) 0.6512(7) 0.7406(4)
C11A C 0.2633(9) 0.6153(7) 0.5319(4)
C12A C 0.4034(8) 0.5248(7) 0.4805(4)
C13A C 0.6300(9) 0.5182(7) 0.6044(4)
C14A C -0.0619(10) 0.4288(7) 0.8565(4)
C15A C -0.2124(11) 0.4437(8) 0.9151(4)
C16A C -0.4180(11) 0.3440(8) 0.9025(4)
C17A C -0.4621(10) 0.2375(8) 0.8299(4)
C18A C -0.3135(12) 0.2152(9) 0.7652(4)
C19A C -0.1040(12) 0.3190(8) 0.7805(4)
C20A C 0.0408(10) 0.2975(7) 0.7191(4)
C21A C -0.0004(11) 0.1872(8) 0.6440(4)
C22A C -0.2089(12) 0.0838(8) 0.6287(4)
C23A C -0.3574(10) 0.1049(7) 0.6916(4)
C24A C -0.2523(9) -0.0294(7) 0.5541(4)
C25A C -0.1039(8) -0.0518(7) 0.4923(4)
C26A C 0.1469(10) 0.1651(7) 0.5822(4)
H1A H -0.07880 0.92020 0.78410
H2A H -0.01320 0.99330 0.92380
H3A H 0.29140 0.90480 0.98370
H4A H 0.53950 0.76320 0.90540
H5A H 0.03290 0.78270 0.64600
H6A H 0.64600 0.61610 0.76550
H7A H 0.28380 0.23050 0.59130
H8A H 0.13880 0.64990 0.50780
H9A H 0.75450 0.48410 0.62890
H10A H 0.07450 0.49430 0.86750
H11A H -0.49450 0.03970 0.68260
H12A H -0.18000 0.52200 0.96530
H13A H -0.52060 0.35270 0.94420
H14A H -0.59980 0.17340 0.82110
H15A H 0.17800 0.36230 0.72860
H16A H -0.38950 -0.09440 0.54500
loop_
_geom_bond_atom_site_label_1
_geom_bond_atom_site_label_2
_geom_bond_distance
_geom_bond_site_symmetry_1
_geom_bond_site_symmetry_2
C1 C2 1.359 1_555 1_555
C2 C3 1.399 1_555 1_555
C3 C4 1.368 1_555 1_555
C4 C5 1.449 1_555 1_555
C5 C6 1.442 1_555 1_555
C6 C1 1.440 1_555 1_555
C7 C6 1.380 1_555 1_555
C8 C7 1.411 1_555 1_555
C9 C8 1.463 1_555 1_555
C10 C5 1.398 1_555 1_555
C11 C8 1.392 1_555 1_555
C12 C11 1.395 1_555 1_555
C13 C9 1.387 1_555 1_555
C14 C15 1.364 1_555 1_555
C15 C16 1.430 1_555 1_555
C16 C17 1.347 1_555 1_555
C17 C18 1.432 1_555 1_555
C18 C19 1.467 1_555 1_555
C19 C14 1.401 1_555 1_555
C20 C19 1.375 1_555 1_555
C21 C20 1.391 1_555 1_555
C22 C21 1.461 1_555 1_555
C23 C18 1.373 1_555 1_555
C24 C22 1.396 1_555 1_555
C25 C24 1.396 1_555 1_555
C26 C21 1.391 1_555 1_555
H1 C1 0.950 1_555 1_555
H2 C2 0.950 1_555 1_555
H3 C3 0.951 1_555 1_555
H4 C4 0.949 1_555 1_555
H5 C7 0.950 1_555 1_555
H6 C10 0.951 1_555 1_555
H7 C26 0.950 1_555 1_555
H8 C11 0.949 1_555 1_555
H9 C13 0.951 1_555 1_555
H10 C14 0.950 1_555 1_555
H11 C23 0.950 1_555 1_555
H12 C15 0.950 1_555 1_555
H13 C16 0.950 1_555 1_555
H14 C17 0.950 1_555 1_555
H15 C20 0.950 1_555 1_555
H16 C24 0.950 1_555 1_555
C1A C2A 1.359 1_555 1_555
C2A C3A 1.399 1_555 1_555
C3A C4A 1.368 1_555 1_555
C4A C5A 1.449 1_555 1_555
C5A C6A 1.442 1_555 1_555
C6A C1A 1.440 1_555 1_555
C7A C6A 1.380 1_555 1_555
C8A C7A 1.411 1_555 1_555
C9A C8A 1.463 1_555 1_555
C10A C5A 1.398 1_555 1_555
C11A C8A 1.392 1_555 1_555
C12A C12 1.472 1_555 1_555
C13A C12 1.390 1_555 1_555
C14A C15A 1.364 1_555 1_555
C15A C16A 1.430 1_555 1_555
C16A C17A 1.347 1_555 1_555
C17A C18A 1.432 1_555 1_555
C18A C19A 1.467 1_555 1_555
C19A C14A 1.401 1_555 1_555
C20A C19A 1.375 1_555 1_555
C21A C20A 1.391 1_555 1_555
C22A C21A 1.461 1_555 1_555
C23A C18A 1.373 1_555 1_555
C24A C22A 1.396 1_555 1_555
C25A C25 1.458 1_555 1_555
C26A C25 1.395 1_555 1_555
H1A C1A 0.950 1_555 1_555
H2A C2A 0.950 1_555 1_555
H3A C3A 0.951 1_555 1_555
H4A C4A 0.949 1_555 1_555
H5A C7A 0.950 1_555 1_555
H6A C10A 0.951 1_555 1_555
H7A C26A 0.950 1_555 1_555
H8A C11A 0.949 1_555 1_555
H9A C13A 0.951 1_555 1_555
H10A C14A 0.950 1_555 1_555
H11A C23A 0.950 1_555 1_555
H12A C15A 0.950 1_555 1_555
H13A C16A 0.950 1_555 1_555
H14A C17A 0.950 1_555 1_555
H15A C20A 0.950 1_555 1_555
H16A C24A 0.950 1_555 1_555
C9 C10 1.399 1_555 1_555
C13 C12A 1.390 1_555 1_555
C22 C23 1.409 1_555 1_555
C26 C25A 1.395 1_555 1_555
C9A C10A 1.399 1_555 1_555
C9A C13A 1.387 1_555 1_555
C11A C12A 1.395 1_555 1_555
C21A C26A 1.391 1_555 1_555
C22A C23A 1.409 1_555 1_555
C24A C25A 1.396 1_555 1_555
#END
