
#######################################################################
#
#                 Cambridge Crystallographic Data Centre
#                                CCDC
#
#######################################################################
#
# If this CIF has been generated from an entry in the Cambridge
# Structural Database, then it will include bibliographic, chemical,
# crystal, experimental, refinement or atomic coordinate data resulting
# from the CCDC's data processing and validation procedures.
#
#######################################################################

data_CSD_CIF_ZZZDKE01
_audit_creation_date 2012-12-31
_audit_creation_method CSD-ConQuest-V1
_database_code_CSD ZZZDKE01
_database_code_depnum_ccdc_archive 'CCDC 846854'
_chemical_formula_sum 'C26 H16'
_chemical_formula_moiety
;
C26 H16
;
_journal_coden_Cambridge 1441
_journal_volume 4
_journal_year 2012
_journal_page_first 574
_journal_name_full 'Nature Chemistry '
loop_
_publ_author_name
"M.Watanabe"
"Yuan Jay Chang"
"Shun-Wei Liu"
"Ting-Han Chao"
"K.Goto"
"Md.M.Islam"
"C.-H.Yuan"
"Yu-Tai Tao"
"T.Shinmyozu"
"T.J.Chow"
_chemical_name_systematic
;
Hexacene
;
_cell_volume    785.917
_exptl_crystal_colour 'blue'
_exptl_crystal_density_diffrn 1.388
_exptl_special_details
;
light- and oxygen-sensitive

;
_exptl_crystal_description 'platelet'
_diffrn_ambient_temperature 123
_diffrn_radiation_source 'Mo Kalpha radiation'
#These two values have been output from a single CSD field.
_refine_ls_R_factor_gt 0.1517
_refine_ls_wR_factor_gt 0.1517
_symmetry_cell_setting triclinic
_symmetry_space_group_name_H-M 'P -1'
_symmetry_Int_Tables_number 2
loop_
_symmetry_equiv_pos_site_id
_symmetry_equiv_pos_as_xyz
1 x,y,z
2 -x,-y,-z
_cell_length_a 6.306(6)
_cell_length_b 7.697(10)
_cell_length_c 16.480(16)
_cell_angle_alpha 98.77(4)
_cell_angle_beta 91.25(3)
_cell_angle_gamma 95.81(5)
_cell_formula_units_Z 2
loop_
_atom_type_symbol
_atom_type_radius_bond
C 0.68
H 0.23
loop_
_atom_site_label
_atom_site_type_symbol
_atom_site_fract_x
_atom_site_fract_y
_atom_site_fract_z
C1 C 0.0336(5) 1.2365(4) 0.32966(17)
C2 C 0.0844(5) 1.3453(4) 0.40230(18)
C3 C 0.2919(5) 1.4442(4) 0.41613(17)
C4 C 0.4389(5) 1.4293(4) 0.35745(16)
C5 C 0.3944(4) 1.3167(4) 0.28004(16)
C6 C 0.1854(5) 1.2159(4) 0.26586(16)
C7 C 0.1384(5) 1.1053(4) 0.19178(16)
C8 C 0.2889(4) 1.0843(4) 0.12952(16)
C9 C 0.4992(5) 1.1857(4) 0.14354(16)
C10 C 0.5412(5) 1.2984(4) 0.21889(16)
C11 C 0.2445(4) 0.9707(4) 0.05449(16)
C12 C 0.3951(4) 0.9490(4) -0.00700(16)
C13 C 0.6488(5) 1.1645(4) 0.08197(16)
C14 C 0.5474(5) 0.8871(4) 0.30660(17)
C15 C 0.5873(5) 0.9283(4) 0.38892(17)
C16 C 0.7771(5) 0.8782(4) 0.42526(18)
C17 C 0.9178(5) 0.7904(4) 0.37826(17)
C18 C 0.8831(5) 0.7433(4) 0.29111(16)
C19 C 0.6909(5) 0.7941(4) 0.25385(16)
C20 C 0.6537(4) 0.7500(4) 0.16909(16)
C21 C 0.7974(4) 0.6592(4) 0.11765(16)
C22 C 0.9897(4) 0.6091(4) 0.15509(16)
C23 C 1.0250(5) 0.6538(4) 0.24122(16)
C24 C 0.7612(4) 0.6157(4) 0.03263(15)
C25 C 0.9040(4) 0.5255(4) -0.01897(16)
C26 C 1.1320(5) 0.5187(4) 0.10456(15)
H1 H -0.10150 1.17450 0.32120
H2 H -0.01530 1.35570 0.44310
H3 H 0.32510 1.51870 0.46570
H4 H 0.57220 1.49380 0.36760
H5 H 0.00370 1.04290 0.18270
H6 H 0.67410 1.36380 0.22810
H7 H 0.11030 0.90740 0.04520
H8 H 0.78260 1.22830 0.09120
H9 H 0.42410 0.91980 0.28380
H10 H 0.49210 0.98870 0.42180
H11 H 0.80350 0.90660 0.48170
H12 H 1.03960 0.76000 0.40310
H13 H 0.53050 0.78120 0.14560
H14 H 1.14740 0.62230 0.26530
H15 H 0.63820 0.64740 0.00910
H16 H 1.25440 0.48680 0.12840
C1A C 0.9664(5) 0.7635(4) -0.32966(17)
C2A C 0.9156(5) 0.6547(4) -0.40230(18)
C3A C 0.7081(5) 0.5558(4) -0.41613(17)
C4A C 0.5611(5) 0.5707(4) -0.35745(16)
C5A C 0.6056(4) 0.6833(4) -0.28004(16)
C6A C 0.8146(5) 0.7841(4) -0.26586(16)
C7A C 0.8616(5) 0.8947(4) -0.19178(16)
C8A C 0.7111(4) 0.9157(4) -0.12952(16)
C9A C 0.5008(5) 0.8143(4) -0.14354(16)
C10A C 0.4588(5) 0.7016(4) -0.21889(16)
C11A C 0.7555(4) 1.0293(4) -0.05449(16)
C12A C 0.6049(4) 1.0510(4) 0.00700(16)
C13A C 0.3512(5) 0.8355(4) -0.08197(16)
C14A C 1.4526(5) 0.1129(4) -0.30660(17)
C15A C 1.4127(5) 0.0717(4) -0.38892(17)
C16A C 1.2229(5) 0.1218(4) -0.42526(18)
C17A C 1.0822(5) 0.2096(4) -0.37826(17)
C18A C 1.1169(5) 0.2567(4) -0.29111(16)
C19A C 1.3091(5) 0.2059(4) -0.25385(16)
C20A C 1.3463(4) 0.2500(4) -0.16909(16)
C21A C 1.2026(4) 0.3408(4) -0.11765(16)
C22A C 1.0103(4) 0.3909(4) -0.15509(16)
C23A C 0.9750(5) 0.3462(4) -0.24122(16)
C24A C 1.2388(4) 0.3843(4) -0.03263(15)
C25A C 1.0960(4) 0.4745(4) 0.01897(16)
C26A C 0.8680(5) 0.4813(4) -0.10456(15)
H1A H 1.10150 0.82550 -0.32120
H2A H 1.01530 0.64430 -0.44310
H3A H 0.67490 0.48130 -0.46570
H4A H 0.42780 0.50620 -0.36760
H5A H 0.99630 0.95710 -0.18270
H6A H 0.32590 0.63620 -0.22810
H7A H 0.88970 1.09260 -0.04520
H8A H 0.21740 0.77170 -0.09120
H9A H 1.57590 0.08020 -0.28380
H10A H 1.50790 0.01130 -0.42180
H11A H 1.19650 0.09340 -0.48170
H12A H 0.96040 0.24000 -0.40310
H13A H 1.46950 0.21880 -0.14560
H14A H 0.85260 0.37770 -0.26530
H15A H 1.36180 0.35260 -0.00910
H16A H 0.74560 0.51320 -0.12840
loop_
_geom_bond_atom_site_label_1
_geom_bond_atom_site_label_2
_geom_bond_distance
_geom_bond_site_symmetry_1
_geom_bond_site_symmetry_2
C1 C2 1.364 1_555 1_555
C2 C3 1.441 1_555 1_555
C3 C4 1.354 1_555 1_555
C4 C5 1.434 1_555 1_555
C5 C6 1.455 1_555 1_555
C6 C1 1.439 1_555 1_555
C7 C6 1.385 1_555 1_555
C8 C7 1.415 1_555 1_555
C9 C8 1.464 1_555 1_555
C10 C5 1.384 1_555 1_555
C11 C8 1.406 1_555 1_555
C12 C11 1.407 1_555 1_555
C13 C9 1.403 1_555 1_555
C14 C15 1.357 1_555 1_555
C15 C16 1.440 1_555 1_555
C16 C17 1.355 1_555 1_555
C17 C18 1.433 1_555 1_555
C18 C19 1.461 1_555 1_555
C19 C14 1.436 1_555 1_555
C20 C19 1.395 1_555 1_555
C21 C20 1.418 1_555 1_555
C22 C21 1.461 1_555 1_555
C23 C18 1.391 1_555 1_555
C24 C21 1.398 1_555 1_555
C25 C24 1.413 1_555 1_555
C26 C22 1.402 1_555 1_555
H1 C1 0.930 1_555 1_555
H2 C2 0.931 1_555 1_555
H3 C3 0.930 1_555 1_555
H4 C4 0.930 1_555 1_555
H5 C7 0.930 1_555 1_555
H6 C10 0.930 1_555 1_555
H7 C11 0.930 1_555 1_555
H8 C13 0.929 1_555 1_555
H9 C14 0.930 1_555 1_555
H10 C15 0.930 1_555 1_555
H11 C16 0.930 1_555 1_555
H12 C17 0.930 1_555 1_555
H13 C20 0.930 1_555 1_555
H14 C23 0.931 1_555 1_555
H15 C24 0.930 1_555 1_555
H16 C26 0.930 1_555 1_555
C1A C2A 1.364 1_555 1_555
C2A C3A 1.441 1_555 1_555
C3A C4A 1.354 1_555 1_555
C4A C5A 1.434 1_555 1_555
C5A C6A 1.455 1_555 1_555
C6A C1A 1.439 1_555 1_555
C7A C6A 1.385 1_555 1_555
C8A C7A 1.415 1_555 1_555
C9A C8A 1.464 1_555 1_555
C10A C5A 1.384 1_555 1_555
C11A C8A 1.406 1_555 1_555
C12A C12 1.463 1_555 1_555
C13A C12 1.405 1_555 1_555
C14A C15A 1.357 1_555 1_555
C15A C16A 1.440 1_555 1_555
C16A C17A 1.355 1_555 1_555
C17A C18A 1.433 1_555 1_555
C18A C19A 1.461 1_555 1_555
C19A C14A 1.436 1_555 1_555
C20A C19A 1.395 1_555 1_555
C21A C20A 1.418 1_555 1_555
C22A C21A 1.461 1_555 1_555
C23A C18A 1.391 1_555 1_555
C24A C21A 1.398 1_555 1_555
C25A C25 1.466 1_555 1_555
C26A C25 1.407 1_555 1_555
H1A C1A 0.930 1_555 1_555
H2A C2A 0.931 1_555 1_555
H3A C3A 0.930 1_555 1_555
H4A C4A 0.930 1_555 1_555
H5A C7A 0.930 1_555 1_555
H6A C10A 0.930 1_555 1_555
H7A C11A 0.930 1_555 1_555
H8A C13A 0.929 1_555 1_555
H9A C14A 0.930 1_555 1_555
H10A C15A 0.930 1_555 1_555
H11A C16A 0.930 1_555 1_555
H12A C17A 0.930 1_555 1_555
H13A C20A 0.930 1_555 1_555
H14A C23A 0.931 1_555 1_555
H15A C24A 0.930 1_555 1_555
H16A C26A 0.930 1_555 1_555
C9 C10 1.405 1_555 1_555
C13 C12A 1.405 1_555 1_555
C22 C23 1.416 1_555 1_555
C26 C25A 1.407 1_555 1_555
C9A C10A 1.405 1_555 1_555
C9A C13A 1.403 1_555 1_555
C11A C12A 1.407 1_555 1_555
C22A C23A 1.416 1_555 1_555
C22A C26A 1.402 1_555 1_555
C24A C25A 1.413 1_555 1_555
#END
