
#######################################################################
#
#                 Cambridge Crystallographic Data Centre
#                                CCDC
#
#######################################################################
#
# If this CIF has been generated from an entry in the Cambridge
# Structural Database, then it will include bibliographic, chemical,
# crystal, experimental, refinement or atomic coordinate data resulting
# from the CCDC's data processing and validation procedures.
#
#######################################################################

data_CSD_CIF_ZZZNNM02
_audit_creation_date 2014-05-05
_audit_creation_method CSD-ConQuest-V1
_database_code_CSD ZZZNNM02
_database_code_depnum_ccdc_archive 'CCDC 1000684'
_chemical_formula_sum 'C24 H16'
_chemical_formula_moiety
;
C24 H16
;
_journal_coden_Cambridge 1078
_journal_year 2014
_journal_name_full 'CSD Communication(Private Communication) '
loop_
_publ_author_name
"H.E.Folsom"
"A.Sygula"
"F.R.Fronczek"
_chemical_name_systematic
;
6b,6c,12b,12c-Tetrahydroacenaphtho[1',2':3,4]cyclobuta[1,2-a]acenaphthylene
;
_chemical_name_common
;
(E)-Dinaphthylenecyclobutane
;
_cell_volume    770.170
_exptl_crystal_colour 'colorless'
_exptl_crystal_density_diffrn 1.312
_exptl_special_details
;
polymorph II

;
_exptl_crystal_description 'prism'
_exptl_crystal_preparation 'chloroform'
_diffrn_ambient_temperature 296
#These two values have been output from a single CSD field.
_refine_ls_R_factor_gt 0.0562
_refine_ls_wR_factor_gt 0.0562
loop_
_citation_database_id_CSD
_citation_special_details
ACNPCD "is a stereoisomer of this entry"
_symmetry_cell_setting monoclinic
_symmetry_space_group_name_H-M 'P 21/n'
_symmetry_Int_Tables_number 14
loop_
_symmetry_equiv_pos_site_id
_symmetry_equiv_pos_as_xyz
1 x,y,z
2 1/2-x,1/2+y,1/2-z
3 -x,-y,-z
4 -1/2+x,-1/2-y,-1/2+z
_cell_length_a 7.8300(6)
_cell_length_b 4.8678(4)
_cell_length_c 20.2309(11)
_cell_angle_alpha 90
_cell_angle_beta 92.811(5)
_cell_angle_gamma 90
_cell_formula_units_Z 2
loop_
_atom_type_symbol
_atom_type_radius_bond
C 0.68
H 0.23
loop_
_atom_site_label
_atom_site_type_symbol
_atom_site_fract_x
_atom_site_fract_y
_atom_site_fract_z
C1 C 0.63303(14) 0.4592(2) 0.51903(5)
H1 H 0.69560 0.28620 0.51480
C2 C 0.45104(15) 0.4283(2) 0.54754(5)
H2 H 0.41920 0.23930 0.55820
C3 C 0.45122(16) 0.6242(3) 0.60502(5)
C4 C 0.3282(2) 0.6930(3) 0.64796(6)
H3 H 0.22210 0.60680 0.64550
C5 C 0.3659(2) 0.8977(3) 0.69613(7)
H4 H 0.28230 0.94560 0.72510
C6 C 0.5209(2) 1.0277(3) 0.70155(6)
H5 H 0.54060 1.16100 0.73390
C7 C 0.6515(2) 0.9610(3) 0.65831(6)
C8 C 0.8168(2) 1.0765(3) 0.65641(8)
H6 H 0.85100 1.21140 0.68680
C9 C 0.9268(2) 0.9913(3) 0.61013(9)
H7 H 1.03490 1.07030 0.61010
C10 C 0.88272(18) 0.7872(3) 0.56217(8)
H8 H 0.96020 0.73360 0.53120
C11 C 0.72327(16) 0.6708(3) 0.56251(6)
C12 C 0.61055(16) 0.7577(2) 0.61051(6)
C1B C 0.36697(14) 0.5408(2) 0.48097(5)
H1B H 0.30440 0.71380 0.48520
C2B C 0.54896(15) 0.5717(2) 0.45246(5)
H2B H 0.58080 0.76070 0.44180
C3B C 0.54878(16) 0.3758(3) 0.39498(5)
C4B C 0.6718(2) 0.3070(3) 0.35204(6)
H3B H 0.77790 0.39320 0.35450
C5B C 0.6341(2) 0.1023(3) 0.30387(7)
H4B H 0.71770 0.05440 0.27490
C6B C 0.4791(2) -0.0277(3) 0.29845(6)
H5B H 0.45940 -0.16100 0.26610
C7B C 0.3485(2) 0.0390(3) 0.34169(6)
C8B C 0.1832(2) -0.0765(3) 0.34359(8)
H6B H 0.14900 -0.21140 0.31320
C9B C 0.0732(2) 0.0087(3) 0.38987(9)
H7B H -0.03490 -0.07030 0.38990
C10B C 0.11728(18) 0.2128(3) 0.43783(8)
H8B H 0.03980 0.26640 0.46880
C11B C 0.27673(16) 0.3292(3) 0.43749(6)
C12B C 0.38945(16) 0.2423(2) 0.38949(6)
loop_
_geom_bond_atom_site_label_1
_geom_bond_atom_site_label_2
_geom_bond_distance
_geom_bond_site_symmetry_1
_geom_bond_site_symmetry_2
C1 H1 0.980 1_555 1_555
C2 C1 1.571 1_555 1_555
H2 C2 0.980 1_555 1_555
C3 C2 1.504 1_555 1_555
C4 C3 1.370 1_555 1_555
H3 C4 0.930 1_555 1_555
C5 C4 1.415 1_555 1_555
H4 C5 0.930 1_555 1_555
C6 C5 1.368 1_555 1_555
H5 C6 0.929 1_555 1_555
C7 C6 1.416 1_555 1_555
C8 C7 1.413 1_555 1_555
H6 C8 0.930 1_555 1_555
C9 C8 1.367 1_555 1_555
H7 C9 0.930 1_555 1_555
C10 C9 1.419 1_555 1_555
H8 C10 0.931 1_555 1_555
C11 C1 1.508 1_555 1_555
C12 C3 1.406 1_555 1_555
C1B C2 1.568 1_555 1_555
H1B C1B 0.980 1_555 1_555
C2B C1 1.568 1_555 1_555
H2B C2B 0.980 1_555 1_555
C3B C2B 1.504 1_555 1_555
C4B C3B 1.370 1_555 1_555
H3B C4B 0.930 1_555 1_555
C5B C4B 1.415 1_555 1_555
H4B C5B 0.930 1_555 1_555
C6B C5B 1.368 1_555 1_555
H5B C6B 0.929 1_555 1_555
C7B C6B 1.416 1_555 1_555
C8B C7B 1.413 1_555 1_555
H6B C8B 0.930 1_555 1_555
C9B C8B 1.367 1_555 1_555
H7B C9B 0.930 1_555 1_555
C10B C9B 1.419 1_555 1_555
H8B C10B 0.931 1_555 1_555
C11B C1B 1.508 1_555 1_555
C12B C3B 1.406 1_555 1_555
C7 C12 1.410 1_555 1_555
C10 C11 1.371 1_555 1_555
C11 C12 1.409 1_555 1_555
C1B C2B 1.571 1_555 1_555
C7B C12B 1.410 1_555 1_555
C10B C11B 1.371 1_555 1_555
C11B C12B 1.409 1_555 1_555
#END
