
#######################################################################
#
#                 Cambridge Crystallographic Data Centre
#                                CCDC
#
#######################################################################
#
# If this CIF has been generated from an entry in the Cambridge
# Structural Database, then it will include bibliographic, chemical,
# crystal, experimental, refinement or atomic coordinate data resulting
# from the CCDC's data processing and validation procedures.
#
#######################################################################

data_CSD_CIF_ZZZOYC02
_audit_creation_date 2014-03-14
_audit_creation_method CSD-ConQuest-V1
_database_code_CSD ZZZOYC02
_database_code_depnum_ccdc_archive 'CCDC 991788'
_chemical_formula_sum 'C22 H14'
_chemical_formula_moiety
;
C22 H14
;
_journal_coden_Cambridge 1078
_journal_year 2014
_journal_name_full 'CSD Communication(Private Communication) '
loop_
_publ_author_name
"M.Bolte"
_chemical_name_systematic
;
Picene
;
_cell_volume    680.813
_exptl_crystal_colour 'colorless'
_exptl_crystal_density_diffrn 1.358
_exptl_special_details
;
monoclinic polymorph

;
_exptl_crystal_description 'plate'
_diffrn_ambient_temperature 173
#These two values have been output from a single CSD field.
_refine_ls_R_factor_gt 0.0463
_refine_ls_wR_factor_gt 0.0463
_symmetry_cell_setting monoclinic
_symmetry_space_group_name_H-M 'P 21'
_symmetry_Int_Tables_number 4
loop_
_symmetry_equiv_pos_site_id
_symmetry_equiv_pos_as_xyz
1 x,y,z
2 -x,1/2+y,-z
_cell_length_a 8.358(3)
_cell_length_b 6.0821(16)
_cell_length_c 13.393(4)
_cell_angle_alpha 90
_cell_angle_beta 90.30(3)
_cell_angle_gamma 90
_cell_formula_units_Z 2
loop_
_atom_type_symbol
_atom_type_radius_bond
C 0.68
H 0.23
loop_
_atom_site_label
_atom_site_type_symbol
_atom_site_fract_x
_atom_site_fract_y
_atom_site_fract_z
C1 C 0.6282(5) 0.2133(9) 0.2993(4)
C2 C 0.5385(5) 0.0390(9) 0.2580(4)
H1 H 0.50350 -0.07910 0.29890
C3 C 0.5026(6) 0.0424(11) 0.1583(5)
H2 H 0.44000 -0.07360 0.13110
C4 C 0.5534(6) 0.2066(10) 0.0963(5)
H3 H 0.52770 0.20240 0.02710
C5 C 0.6418(6) 0.3772(10) 0.1345(4)
H4 H 0.67810 0.49070 0.09150
C6 C 0.6790(5) 0.3852(10) 0.2373(5)
C7 C 0.7679(6) 0.5608(10) 0.2772(5)
H5 H 0.80130 0.67670 0.23450
C8 C 0.8066(6) 0.5677(10) 0.3749(5)
H6 H 0.86740 0.68850 0.39920
C9 C 0.7597(6) 0.4005(9) 0.4428(4)
C10 C 0.6715(5) 0.2218(10) 0.4051(4)
C11 C 0.6282(6) 0.0528(10) 0.4713(5)
H7 H 0.56690 -0.06730 0.44680
C12 C 0.6713(5) 0.0557(10) 0.5692(5)
H8 H 0.64030 -0.06240 0.61130
C13 C 0.7616(5) 0.2319(9) 0.6095(4)
C14 C 0.8051(5) 0.4041(9) 0.5456(4)
C15 C 0.8960(6) 0.5798(10) 0.5860(5)
H9 H 0.92520 0.69810 0.54350
C16 C 0.9421(6) 0.5852(10) 0.6818(5)
H10 H 1.00510 0.70480 0.70520
C17 C 0.8982(6) 0.4145(9) 0.7494(5)
C18 C 0.8090(5) 0.2349(9) 0.7140(4)
C19 C 0.7703(5) 0.0651(9) 0.7812(4)
H11 H 0.71080 -0.05850 0.75860
C20 C 0.8180(6) 0.0777(11) 0.8789(5)
H12 H 0.79030 -0.03710 0.92370
C21 C 0.9068(6) 0.2562(10) 0.9140(5)
H13 H 0.93940 0.26320 0.98200
C22 C 0.9464(6) 0.4215(11) 0.8489(5)
H14 H 1.00770 0.54280 0.87220
loop_
_geom_bond_atom_site_label_1
_geom_bond_atom_site_label_2
_geom_bond_distance
_geom_bond_site_symmetry_1
_geom_bond_site_symmetry_2
C1 C2 1.410 1_555 1_555
C2 H1 0.950 1_555 1_555
C3 C2 1.367 1_555 1_555
H2 C3 0.950 1_555 1_555
C4 C3 1.368 1_555 1_555
H3 C4 0.951 1_555 1_555
C5 C4 1.371 1_555 1_555
H4 C5 0.950 1_555 1_555
C6 C1 1.402 1_555 1_555
C7 C6 1.405 1_555 1_555
H5 C7 0.951 1_555 1_555
C8 C7 1.347 1_555 1_555
H6 C8 0.950 1_555 1_555
C9 C8 1.421 1_555 1_555
C10 C1 1.462 1_555 1_555
C11 C10 1.406 1_555 1_555
H7 C11 0.950 1_555 1_555
C12 C11 1.358 1_555 1_555
H8 C12 0.950 1_555 1_555
C13 C12 1.416 1_555 1_555
C14 C9 1.426 1_555 1_555
C15 C14 1.417 1_555 1_555
H9 C15 0.950 1_555 1_555
C16 C15 1.338 1_555 1_555
H10 C16 0.950 1_555 1_555
C17 C16 1.427 1_555 1_555
C18 C13 1.453 1_555 1_555
C19 C18 1.409 1_555 1_555
H11 C19 0.950 1_555 1_555
C20 C19 1.368 1_555 1_555
H12 C20 0.950 1_555 1_555
C21 C20 1.395 1_555 1_555
H13 C21 0.950 1_555 1_555
C22 C17 1.391 1_555 1_555
H14 C22 0.950 1_555 1_555
C5 C6 1.411 1_555 1_555
C9 C10 1.406 1_555 1_555
C13 C14 1.402 1_555 1_555
C17 C18 1.404 1_555 1_555
C21 C22 1.372 1_555 1_555
#END
