
#######################################################################
#
#                 Cambridge Crystallographic Data Centre
#                                CCDC
#
#######################################################################
#
# If this CIF has been generated from an entry in the Cambridge
# Structural Database, then it will include bibliographic, chemical,
# crystal, experimental, refinement or atomic coordinate data resulting
# from the CCDC's data processing and validation procedures.
#
#######################################################################

data_CSD_CIF_ZZZOYC03
_audit_creation_date 2014-06-03
_audit_creation_method CSD-ConQuest-V1
_database_code_CSD ZZZOYC03
_database_code_depnum_ccdc_archive 'CCDC 972624'
_chemical_formula_sum 'C22 H14'
_chemical_formula_moiety
;
C22 H14
;
_journal_coden_Cambridge 1147
_journal_volume 14
_journal_year 2014
_journal_page_first 1338
_journal_name_full 'Cryst.Growth Des. '
loop_
_publ_author_name
"B.Mahns"
"O.Kataeva"
"D.Islamov"
"S.Hampel"
"F.Steckel"
"C.Hess"
"M.Knupfer"
"B.Buchner"
"C.Himcinschi"
"T.Hahn"
"R.Renger"
"J.Kortus"
_chemical_name_systematic
;
Picene
;
_cell_volume    686.725
_exptl_crystal_colour 'colorless'
_exptl_crystal_density_diffrn 1.346
_exptl_special_details
;
monoclinic polymorph

;
_exptl_crystal_description 'prism'
_diffrn_ambient_temperature 150
#These two values have been output from a single CSD field.
_refine_ls_R_factor_gt 0.0427
_refine_ls_wR_factor_gt 0.0427
_symmetry_cell_setting monoclinic
_symmetry_space_group_name_H-M 'P 21'
_symmetry_Int_Tables_number 4
loop_
_symmetry_equiv_pos_site_id
_symmetry_equiv_pos_as_xyz
1 x,y,z
2 -x,1/2+y,-z
_cell_length_a 8.408(3)
_cell_length_b 6.082(2)
_cell_length_c 13.429(5)
_cell_angle_alpha 90
_cell_angle_beta 90.023(5)
_cell_angle_gamma 90
_cell_formula_units_Z 2
loop_
_atom_type_symbol
_atom_type_radius_bond
C 0.68
H 0.23
loop_
_atom_site_label
_atom_site_type_symbol
_atom_site_fract_x
_atom_site_fract_y
_atom_site_fract_z
C1 C 0.6949(2) 0.7032(4) 0.95430(15)
C2 C 0.7383(2) 0.8769(4) 0.89039(14)
C3 C 0.7394(2) 0.7083(4) 1.05760(14)
C4 C 0.8279(2) 0.8868(4) 1.09507(14)
C5 C 0.8726(2) 1.0565(4) 1.02827(14)
H1 H 0.93410 1.17630 1.05230
C6 C 0.8298(2) 1.0521(4) 0.93084(15)
H2 H 0.86170 1.16920 0.88850
C7 C 0.6904(2) 0.8736(4) 0.78639(15)
C8 C 0.8713(2) 0.8936(4) 1.20010(14)
C9 C 0.8215(2) 0.7213(4) 1.26380(15)
C10 C 0.6038(2) 0.5262(4) 0.91391(14)
H3 H 0.57350 0.40840 0.95630
C11 C 0.6007(2) 0.6926(4) 0.75046(15)
C12 C 0.5595(2) 0.5210(4) 0.81738(14)
H4 H 0.49930 0.39970 0.79360
C13 C 0.6946(2) 0.5369(4) 1.12513(14)
H5 H 0.63630 0.41450 1.10060
C14 C 0.9617(2) 1.0655(4) 1.24206(15)
H6 H 0.99710 1.18240 1.20080
C15 C 0.7328(2) 0.5444(4) 1.22294(15)
H7 H 0.69940 0.42830 1.26540
C16 C 0.5542(2) 0.6862(4) 0.65030(15)
H8 H 0.49400 0.56480 0.62660
C17 C 0.8589(2) 0.7296(4) 1.36564(15)
H9 H 0.82310 0.61570 1.40850
C18 C 0.9992(2) 1.0668(4) 1.34131(15)
H10 H 1.06180 1.18300 1.36770
C19 C 0.7304(2) 1.0412(4) 0.71809(14)
H11 H 0.79100 1.16360 0.74010
C20 C 0.5939(3) 0.8513(4) 0.58612(16)
H12 H 0.56100 0.84510 0.51850
C21 C 0.6834(2) 1.0302(4) 0.62067(15)
H13 H 0.71160 1.14480 0.57600
C22 C 0.9462(2) 0.8993(4) 1.40399(15)
H14 H 0.97070 0.90310 1.47300
loop_
_geom_bond_atom_site_label_1
_geom_bond_atom_site_label_2
_geom_bond_distance
_geom_bond_site_symmetry_1
_geom_bond_site_symmetry_2
C1 C2 1.409 1_555 1_555
C2 C6 1.422 1_555 1_555
C3 C1 1.437 1_555 1_555
C4 C3 1.409 1_555 1_555
C5 C4 1.418 1_555 1_555
H1 C5 0.950 1_555 1_555
C6 C5 1.357 1_555 1_555
H2 C6 0.950 1_555 1_555
C7 C2 1.454 1_555 1_555
C8 C4 1.457 1_555 1_555
C9 C8 1.416 1_555 1_555
C10 C1 1.428 1_555 1_555
H3 C10 0.950 1_555 1_555
C11 C7 1.419 1_555 1_555
C12 C10 1.349 1_555 1_555
H4 C12 0.950 1_555 1_555
C13 C3 1.432 1_555 1_555
H5 C13 0.950 1_555 1_555
C14 C8 1.410 1_555 1_555
H6 C14 0.949 1_555 1_555
C15 C9 1.419 1_555 1_555
H7 C15 0.950 1_555 1_555
C16 C11 1.401 1_555 1_555
H8 C16 0.950 1_555 1_555
C17 C9 1.404 1_555 1_555
H9 C17 0.950 1_555 1_555
C18 C14 1.370 1_555 1_555
H10 C18 0.950 1_555 1_555
C19 C7 1.412 1_555 1_555
H11 C19 0.949 1_555 1_555
C20 C16 1.365 1_555 1_555
H12 C20 0.950 1_555 1_555
C21 C19 1.368 1_555 1_555
H13 C21 0.950 1_555 1_555
C22 C17 1.367 1_555 1_555
H14 C22 0.950 1_555 1_555
C11 C12 1.420 1_555 1_555
C13 C15 1.353 1_555 1_555
C18 C22 1.395 1_555 1_555
C20 C21 1.402 1_555 1_555
#END
