
#######################################################################
#
#                 Cambridge Crystallographic Data Centre
#                                CCDC
#
#######################################################################
#
# If this CIF has been generated from an entry in the Cambridge
# Structural Database, then it will include bibliographic, chemical,
# crystal, experimental, refinement or atomic coordinate data resulting
# from the CCDC's data processing and validation procedures.
#
#######################################################################

data_CSD_CIF_ZZZUFS11
_audit_creation_date 1985-03-02
_audit_creation_method CSD-ConQuest-V1
_database_code_CSD ZZZUFS11
_chemical_formula_sum 'C19 H14'
_chemical_formula_moiety
;
C19 H14
;
_journal_coden_Cambridge 557
_journal_volume 5
_journal_year 1984
_journal_page_first 363
_journal_name_full 'Carcinogenesis '
loop_
_publ_author_name
"C.E.Briant"
"D.W.Jones"
_chemical_name_systematic
;
11-Methylbenz(a)anthracene
;
_cell_volume   2561.689
_exptl_crystal_density_diffrn 1.25
_exptl_special_details
;
C4-C14 in Fig. 3 should probably read 1.413, not 1.433. z(H9) in Table II 
should probably read 0.101, not 0.110
;
_diffrn_ambient_temperature ?
_diffrn_special_details
;
The study was carried out at room temperature,in the range 283-303K

;
#These two values have been output from a single CSD field.
_refine_ls_R_factor_gt 0.036
_refine_ls_wR_factor_gt 0.036
_symmetry_cell_setting orthorhombic
_symmetry_space_group_name_H-M 'P b c a'
_symmetry_Int_Tables_number 61
loop_
_symmetry_equiv_pos_site_id
_symmetry_equiv_pos_as_xyz
1 x,y,z
2 1/2-x,1/2+y,z
3 x,1/2-y,1/2+z
4 1/2-x,-y,1/2+z
5 -x,-y,-z
6 -1/2+x,-1/2-y,-z
7 -x,-1/2+y,-1/2-z
8 -1/2+x,y,-1/2-z
_cell_length_a 14.339(4)
_cell_length_b 14.521(4)
_cell_length_c 12.303(2)
_cell_angle_alpha 90
_cell_angle_beta 90
_cell_angle_gamma 90
_cell_formula_units_Z 8
loop_
_atom_type_symbol
_atom_type_radius_bond
C 0.68
H 0.23
loop_
_atom_site_label
_atom_site_type_symbol
_atom_site_fract_x
_atom_site_fract_y
_atom_site_fract_z
C1 C 0.67500 0.55170 0.02410
C2 C 0.73840 0.59670 -0.04060
C3 C 0.77170 0.55460 -0.13470
C4 C 0.74070 0.46940 -0.16150
C5 C 0.64290 0.33180 -0.12620
C6 C 0.58050 0.28610 -0.06560
C7 C 0.47970 0.27830 0.09650
C8 C 0.37580 0.26720 0.25550
C9 C 0.34040 0.30630 0.34710
C10 C 0.37010 0.39340 0.38150
C11 C 0.43500 0.44280 0.32470
C12 C 0.53820 0.45090 0.16250
C13 C 0.64230 0.46400 -0.00060
C14 C 0.67590 0.42140 -0.09630
C15 C 0.54410 0.32510 0.03380
C16 C 0.44330 0.31470 0.19260
C17 C 0.47300 0.40380 0.22740
C18 C 0.57480 0.41420 0.06690
C19 C 0.46400 0.53620 0.36170
H1 H 0.65300 0.58600 0.09000
H2 H 0.76000 0.66100 -0.02500
H3 H 0.81600 0.59200 -0.17800
H4 H 0.75800 0.44000 -0.22600
H5 H 0.66400 0.30500 -0.19300
H6 H 0.55700 0.22600 -0.08500
H7 H 0.46000 0.21700 0.07300
H8 H 0.35900 0.20800 0.23100
H9 H 0.29800 0.27400 0.39900
H10 H 0.34600 0.42200 0.44800
H11 H 0.55700 0.51500 0.18300
H12 H 0.45100 0.58500 0.30600
H13 H 0.53000 0.54300 0.37400
H14 H 0.43100 0.55600 0.42700
loop_
_geom_bond_atom_site_label_1
_geom_bond_atom_site_label_2
_geom_bond_distance
_geom_bond_site_symmetry_1
_geom_bond_site_symmetry_2
C1 C2 1.374 1_555 1_555
C2 C3 1.394 1_555 1_555
C3 C4 1.355 1_555 1_555
C4 C14 1.412 1_555 1_555
C5 C6 1.340 1_555 1_555
C6 C15 1.445 1_555 1_555
C7 C15 1.382 1_555 1_555
C8 C9 1.360 1_555 1_555
C9 C10 1.400 1_555 1_555
C10 C11 1.367 1_555 1_555
C11 C17 1.432 1_555 1_555
C12 C17 1.407 1_555 1_555
C13 C1 1.391 1_555 1_555
C14 C5 1.432 1_555 1_555
C15 C18 1.426 1_555 1_555
C16 C7 1.396 1_555 1_555
C17 C16 1.428 1_555 1_555
C18 C12 1.394 1_555 1_555
C19 C11 1.490 1_555 1_555
H1 C1 1.002 1_555 1_555
H2 C2 1.002 1_555 1_555
H3 C3 0.991 1_555 1_555
H4 C4 0.935 1_555 1_555
H5 C5 0.958 1_555 1_555
H6 C6 0.965 1_555 1_555
H7 C7 0.978 1_555 1_555
H8 C8 0.942 1_555 1_555
H9 C9 0.999 1_555 1_555
H10 C10 0.980 1_555 1_555
H11 C12 1.001 1_555 1_555
H12 C19 1.003 1_555 1_555
H13 C19 0.963 1_555 1_555
H14 C19 0.976 1_555 1_555
C8 C16 1.418 1_555 1_555
C13 C14 1.415 1_555 1_555
C13 C18 1.466 1_555 1_555
#END
